<?xml version="1.0"?>
<VTKFile type="UnstructuredGrid" version="0.1" byte_order="LittleEndian" compressor="vtkZLibDataCompressor">
  <UnstructuredGrid>
    <Piece NumberOfPoints="21868" NumberOfCells="5467">
      <PointData Scalars="u2" Vectors="DisplacementSolutionVector">
        <DataArray type="Float64" Name="u2" format="ascii" RangeMin="0" RangeMax="0">
          0 0 0 0 0 0
          0 0 0 0 0 0
          0 0 0 0 0 0
          0 0 0 0 0 0
          0 0 0 0 0 0
          0 0 0 0 0 0
          0 0 0 0 0 0
          0 0 0 0 0 0
          0 0 0 0 0 0
          0 0 0 0 0 0
          0 0 0 0 0 0
          0 0 0 0 0 0
          0 0 0 0 0 0
          0 0 0 0 0 0
          0 0 0 0 0 0
          0 0 0 0 0 0
          0 0 0 0 0 0
          0 0 0 0 0 0
          0 0 0 0 0 0
          0 0 0 0 0 0
          0 0 0 0 0 0
          0 0 0 0 0 0
          0 0 0 0 0 0
          0 0 0 0 0 0
          0 0 0 0 0 0
          0 0 0 0 0 0
          0 0 0 0 0 0
          0 0 0 0 0 0
          0 0 0 0 0 0
          0 0 0 0 0 0
          0 0 0 0 0 0
          0 0 0 0 0 0
          0 0 0 0 0 0
          0 0 0 0 0 0
          0 0 0 0 0 0
          0 0 0 0 0 0
          0 0 0 0 0 0
          0 0 0 0 0 0
          0 0 0 0 0 0
          0 0 0 0 0 0
          0 0 0 0 0 0
          0 0 0 0 0 0
          0 0 0 0 0 0
          0 0 0 0 0 0
          0 0 0 0 0 0
          0 0 0 0 0 0
          0 0 0 0 0 0
          0 0 0 0 0 0
          0 0 0 0 0 0
          0 0 0 0 0 0
          0 0 0 0 0 0
          0 0 0 0 0 0
          0 0 0 0 0 0
          0 0 0 0 0 0
          0 0 0 0 0 0
          0 0 0 0 0 0
          0 0 0 0 0 0
          0 0 0 0 0 0
          0 0 0 0 0 0
          0 0 0 0 0 0
          0 0 0 0 0 0
          0 0 0 0 0 0
          0 0 0 0 0 0
          0 0 0 0 0 0
          0 0 0 0 0 0
          0 0 0 0 0 0
          0 0 0 0 0 0
          0 0 0 0 0 0
          0 0 0 0 0 0
          0 0 0 0 0 0
          0 0 0 0 0 0
          0 0 0 0 0 0
          0 0 0 0 0 0
          0 0 0 0 0 0
          0 0 0 0 0 0
          0 0 0 0 0 0
          0 0 0 0 0 0
          0 0 0 0 0 0
          0 0 0 0 0 0
          0 0 0 0 0 0
          0 0 0 0 0 0
          0 0 0 0 0 0
          0 0 0 0 0 0
          0 0 0 0 0 0
          0 0 0 0 0 0
          0 0 0 0 0 0
          0 0 0 0 0 0
          0 0 0 0 0 0
          0 0 0 0 0 0
          0 0 0 0 0 0
          0 0 0 0 0 0
          0 0 0 0 0 0
          0 0 0 0 0 0
          0 0 0 0 0 0
          0 0 0 0 0 0
          0 0 0 0 0 0
          0 0 0 0 0 0
          0 0 0 0 0 0
          0 0 0 0 0 0
          0 0 0 0 0 0
          0 0 0 0 0 0
          0 0 0 0 0 0
          0 0 0 0 0 0
          0 0 0 0 0 0
          0 0 0 0 0 0
          0 0 0 0 0 0
          0 0 0 0 0 0
          0 0 0 0 0 0
          0 0 0 0 0 0
          0 0 0 0 0 0
          0 0 0 0 0 0
          0 0 0 0 0 0
          0 0 0 0 0 0
          0 0 0 0 0 0
          0 0 0 0 0 0
          0 0 0 0 0 0
          0 0 0 0 0 0
          0 0 0 0 0 0
          0 0 0 0 0 0
          0 0 0 0 0 0
          0 0 0 0 0 0
          0 0 0 0 0 0
          0 0 0 0 0 0
          0 0 0 0 0 0
          0 0 0 0 0 0
          0 0 0 0 0 0
          0 0 0 0 0 0
          0 0 0 0 0 0
          0 0 0 0 0 0
          0 0 0 0 0 0
          0 0 0 0 0 0
          0 0 0 0 0 0
          0 0 0 0 0 0
          0 0 0 0 0 0
          0 0 0 0 0 0
          0 0 0 0 0 0
          0 0 0 0 0 0
          0 0 0 0 0 0
          0 0 0 0 0 0
          0 0 0 0 0 0
          0 0 0 0 0 0
          0 0 0 0 0 0
          0 0 0 0 0 0
          0 0 0 0 0 0
          0 0 0 0 0 0
          0 0 0 0 0 0
          0 0 0 0 0 0
          0 0 0 0 0 0
          0 0 0 0 0 0
          0 0 0 0 0 0
          0 0 0 0 0 0
          0 0 0 0 0 0
          0 0 0 0 0 0
          0 0 0 0 0 0
          0 0 0 0 0 0
          0 0 0 0 0 0
          0 0 0 0 0 0
          0 0 0 0 0 0
          0 0 0 0 0 0
          0 0 0 0 0 0
          0 0 0 0 0 0
          0 0 0 0 0 0
          0 0 0 0 0 0
          0 0 0 0 0 0
          0 0 0 0 0 0
          0 0 0 0 0 0
          0 0 0 0 0 0
          0 0 0 0 0 0
          0 0 0 0 0 0
          0 0 0 0 0 0
          0 0 0 0 0 0
          0 0 0 0 0 0
          0 0 0 0 0 0
          0 0 0 0 0 0
          0 0 0 0 0 0
          0 0 0 0 0 0
          0 0 0 0 0 0
          0 0 0 0 0 0
          0 0 0 0 0 0
          0 0 0 0 0 0
          0 0 0 0 0 0
          0 0 0 0 0 0
          0 0 0 0 0 0
          0 0 0 0 0 0
          0 0 0 0 0 0
          0 0 0 0 0 0
          0 0 0 0 0 0
          0 0 0 0 0 0
          0 0 0 0 0 0
          0 0 0 0 0 0
          0 0 0 0 0 0
          0 0 0 0 0 0
          0 0 0 0 0 0
          0 0 0 0 0 0
          0 0 0 0 0 0
          0 0 0 0 0 0
          0 0 0 0 0 0
          0 0 0 0 0 0
          0 0 0 0 0 0
          0 0 0 0 0 0
          0 0 0 0 0 0
          0 0 0 0 0 0
          0 0 0 0 0 0
          0 0 0 0 0 0
          0 0 0 0 0 0
          0 0 0 0 0 0
          0 0 0 0 0 0
          0 0 0 0 0 0
          0 0 0 0 0 0
          0 0 0 0 0 0
          0 0 0 0 0 0
          0 0 0 0 0 0
          0 0 0 0 0 0
          0 0 0 0 0 0
          0 0 0 0 0 0
          0 0 0 0 0 0
          0 0 0 0 0 0
          0 0 0 0 0 0
          0 0 0 0 0 0
          0 0 0 0 0 0
          0 0 0 0 0 0
          0 0 0 0 0 0
          0 0 0 0 0 0
          0 0 0 0 0 0
          0 0 0 0 0 0
          0 0 0 0 0 0
          0 0 0 0 0 0
          0 0 0 0 0 0
          0 0 0 0 0 0
          0 0 0 0 0 0
          0 0 0 0 0 0
          0 0 0 0 0 0
          0 0 0 0 0 0
          0 0 0 0 0 0
          0 0 0 0 0 0
          0 0 0 0 0 0
          0 0 0 0 0 0
          0 0 0 0 0 0
          0 0 0 0 0 0
          0 0 0 0 0 0
          0 0 0 0 0 0
          0 0 0 0 0 0
          0 0 0 0 0 0
          0 0 0 0 0 0
          0 0 0 0 0 0
          0 0 0 0 0 0
          0 0 0 0 0 0
          0 0 0 0 0 0
          0 0 0 0 0 0
          0 0 0 0 0 0
          0 0 0 0 0 0
          0 0 0 0 0 0
          0 0 0 0 0 0
          0 0 0 0 0 0
          0 0 0 0 0 0
          0 0 0 0 0 0
          0 0 0 0 0 0
          0 0 0 0 0 0
          0 0 0 0 0 0
          0 0 0 0 0 0
          0 0 0 0 0 0
          0 0 0 0 0 0
          0 0 0 0 0 0
          0 0 0 0 0 0
          0 0 0 0 0 0
          0 0 0 0 0 0
          0 0 0 0 0 0
          0 0 0 0 0 0
          0 0 0 0 0 0
          0 0 0 0 0 0
          0 0 0 0 0 0
          0 0 0 0 0 0
          0 0 0 0 0 0
          0 0 0 0 0 0
          0 0 0 0 0 0
          0 0 0 0 0 0
          0 0 0 0 0 0
          0 0 0 0 0 0
          0 0 0 0 0 0
          0 0 0 0 0 0
          0 0 0 0 0 0
          0 0 0 0 0 0
          0 0 0 0 0 0
          0 0 0 0 0 0
          0 0 0 0 0 0
          0 0 0 0 0 0
          0 0 0 0 0 0
          0 0 0 0 0 0
          0 0 0 0 0 0
          0 0 0 0 0 0
          0 0 0 0 0 0
          0 0 0 0 0 0
          0 0 0 0 0 0
          0 0 0 0 0 0
          0 0 0 0 0 0
          0 0 0 0 0 0
          0 0 0 0 0 0
          0 0 0 0 0 0
          0 0 0 0 0 0
          0 0 0 0 0 0
          0 0 0 0 0 0
          0 0 0 0 0 0
          0 0 0 0 0 0
          0 0 0 0 0 0
          0 0 0 0 0 0
          0 0 0 0 0 0
          0 0 0 0 0 0
          0 0 0 0 0 0
          0 0 0 0 0 0
          0 0 0 0 0 0
          0 0 0 0 0 0
          0 0 0 0 0 0
          0 0 0 0 0 0
          0 0 0 0 0 0
          0 0 0 0 0 0
          0 0 0 0 0 0
          0 0 0 0 0 0
          0 0 0 0 0 0
          0 0 0 0 0 0
          0 0 0 0 0 0
          0 0 0 0 0 0
          0 0 0 0 0 0
          0 0 0 0 0 0
          0 0 0 0 0 0
          0 0 0 0 0 0
          0 0 0 0 0 0
          0 0 0 0 0 0
          0 0 0 0 0 0
          0 0 0 0 0 0
          0 0 0 0 0 0
          0 0 0 0 0 0
          0 0 0 0 0 0
          0 0 0 0 0 0
          0 0 0 0 0 0
          0 0 0 0 0 0
          0 0 0 0 0 0
          0 0 0 0 0 0
          0 0 0 0 0 0
          0 0 0 0 0 0
          0 0 0 0 0 0
          0 0 0 0 0 0
          0 0 0 0 0 0
          0 0 0 0 0 0
          0 0 0 0 0 0
          0 0 0 0 0 0
          0 0 0 0 0 0
          0 0 0 0 0 0
          0 0 0 0 0 0
          0 0 0 0 0 0
          0 0 0 0 0 0
          0 0 0 0 0 0
          0 0 0 0 0 0
          0 0 0 0 0 0
          0 0 0 0 0 0
          0 0 0 0 0 0
          0 0 0 0 0 0
          0 0 0 0 0 0
          0 0 0 0 0 0
          0 0 0 0 0 0
          0 0 0 0 0 0
          0 0 0 0 0 0
          0 0 0 0 0 0
          0 0 0 0 0 0
          0 0 0 0 0 0
          0 0 0 0 0 0
          0 0 0 0 0 0
          0 0 0 0 0 0
          0 0 0 0 0 0
          0 0 0 0 0 0
          0 0 0 0 0 0
          0 0 0 0 0 0
          0 0 0 0 0 0
          0 0 0 0 0 0
          0 0 0 0 0 0
          0 0 0 0 0 0
          0 0 0 0 0 0
          0 0 0 0 0 0
          0 0 0 0 0 0
          0 0 0 0 0 0
          0 0 0 0 0 0
          0 0 0 0 0 0
          0 0 0 0 0 0
          0 0 0 0 0 0
          0 0 0 0 0 0
          0 0 0 0 0 0
          0 0 0 0 0 0
          0 0 0 0 0 0
          0 0 0 0 0 0
          0 0 0 0 0 0
          0 0 0 0 0 0
          0 0 0 0 0 0
          0 0 0 0 0 0
          0 0 0 0 0 0
          0 0 0 0 0 0
          0 0 0 0 0 0
          0 0 0 0 0 0
          0 0 0 0 0 0
          0 0 0 0 0 0
          0 0 0 0 0 0
          0 0 0 0 0 0
          0 0 0 0 0 0
          0 0 0 0 0 0
          0 0 0 0 0 0
          0 0 0 0 0 0
          0 0 0 0 0 0
          0 0 0 0 0 0
          0 0 0 0 0 0
          0 0 0 0 0 0
          0 0 0 0 0 0
          0 0 0 0 0 0
          0 0 0 0 0 0
          0 0 0 0 0 0
          0 0 0 0 0 0
          0 0 0 0 0 0
          0 0 0 0 0 0
          0 0 0 0 0 0
          0 0 0 0 0 0
          0 0 0 0 0 0
          0 0 0 0 0 0
          0 0 0 0 0 0
          0 0 0 0 0 0
          0 0 0 0 0 0
          0 0 0 0 0 0
          0 0 0 0 0 0
          0 0 0 0 0 0
          0 0 0 0 0 0
          0 0 0 0 0 0
          0 0 0 0 0 0
          0 0 0 0 0 0
          0 0 0 0 0 0
          0 0 0 0 0 0
          0 0 0 0 0 0
          0 0 0 0 0 0
          0 0 0 0 0 0
          0 0 0 0 0 0
          0 0 0 0 0 0
          0 0 0 0 0 0
          0 0 0 0 0 0
          0 0 0 0 0 0
          0 0 0 0 0 0
          0 0 0 0 0 0
          0 0 0 0 0 0
          0 0 0 0 0 0
          0 0 0 0 0 0
          0 0 0 0 0 0
          0 0 0 0 0 0
          0 0 0 0 0 0
          0 0 0 0 0 0
          0 0 0 0 0 0
          0 0 0 0 0 0
          0 0 0 0 0 0
          0 0 0 0 0 0
          0 0 0 0 0 0
          0 0 0 0 0 0
          0 0 0 0 0 0
          0 0 0 0 0 0
          0 0 0 0 0 0
          0 0 0 0 0 0
          0 0 0 0 0 0
          0 0 0 0 0 0
          0 0 0 0 0 0
          0 0 0 0 0 0
          0 0 0 0 0 0
          0 0 0 0 0 0
          0 0 0 0 0 0
          0 0 0 0 0 0
          0 0 0 0 0 0
          0 0 0 0 0 0
          0 0 0 0 0 0
          0 0 0 0 0 0
          0 0 0 0 0 0
          0 0 0 0 0 0
          0 0 0 0 0 0
          0 0 0 0 0 0
          0 0 0 0 0 0
          0 0 0 0 0 0
          0 0 0 0 0 0
          0 0 0 0 0 0
          0 0 0 0 0 0
          0 0 0 0 0 0
          0 0 0 0 0 0
          0 0 0 0 0 0
          0 0 0 0 0 0
          0 0 0 0 0 0
          0 0 0 0 0 0
          0 0 0 0 0 0
          0 0 0 0 0 0
          0 0 0 0 0 0
          0 0 0 0 0 0
          0 0 0 0 0 0
          0 0 0 0 0 0
          0 0 0 0 0 0
          0 0 0 0 0 0
          0 0 0 0 0 0
          0 0 0 0 0 0
          0 0 0 0 0 0
          0 0 0 0 0 0
          0 0 0 0 0 0
          0 0 0 0 0 0
          0 0 0 0 0 0
          0 0 0 0 0 0
          0 0 0 0 0 0
          0 0 0 0 0 0
          0 0 0 0 0 0
          0 0 0 0 0 0
          0 0 0 0 0 0
          0 0 0 0 0 0
          0 0 0 0 0 0
          0 0 0 0 0 0
          0 0 0 0 0 0
          0 0 0 0 0 0
          0 0 0 0 0 0
          0 0 0 0 0 0
          0 0 0 0 0 0
          0 0 0 0 0 0
          0 0 0 0 0 0
          0 0 0 0 0 0
          0 0 0 0 0 0
          0 0 0 0 0 0
          0 0 0 0 0 0
          0 0 0 0 0 0
          0 0 0 0 0 0
          0 0 0 0 0 0
          0 0 0 0 0 0
          0 0 0 0 0 0
          0 0 0 0 0 0
          0 0 0 0 0 0
          0 0 0 0 0 0
          0 0 0 0 0 0
          0 0 0 0 0 0
          0 0 0 0 0 0
          0 0 0 0 0 0
          0 0 0 0 0 0
          0 0 0 0 0 0
          0 0 0 0 0 0
          0 0 0 0 0 0
          0 0 0 0 0 0
          0 0 0 0 0 0
          0 0 0 0 0 0
          0 0 0 0 0 0
          0 0 0 0 0 0
          0 0 0 0 0 0
          0 0 0 0 0 0
          0 0 0 0 0 0
          0 0 0 0 0 0
          0 0 0 0 0 0
          0 0 0 0 0 0
          0 0 0 0 0 0
          0 0 0 0 0 0
          0 0 0 0 0 0
          0 0 0 0 0 0
          0 0 0 0 0 0
          0 0 0 0 0 0
          0 0 0 0 0 0
          0 0 0 0 0 0
          0 0 0 0 0 0
          0 0 0 0 0 0
          0 0 0 0 0 0
          0 0 0 0 0 0
          0 0 0 0 0 0
          0 0 0 0 0 0
          0 0 0 0 0 0
          0 0 0 0 0 0
          0 0 0 0 0 0
          0 0 0 0 0 0
          0 0 0 0 0 0
          0 0 0 0 0 0
          0 0 0 0 0 0
          0 0 0 0 0 0
          0 0 0 0 0 0
          0 0 0 0 0 0
          0 0 0 0 0 0
          0 0 0 0 0 0
          0 0 0 0 0 0
          0 0 0 0 0 0
          0 0 0 0 0 0
          0 0 0 0 0 0
          0 0 0 0 0 0
          0 0 0 0 0 0
          0 0 0 0 0 0
          0 0 0 0 0 0
          0 0 0 0 0 0
          0 0 0 0 0 0
          0 0 0 0 0 0
          0 0 0 0 0 0
          0 0 0 0 0 0
          0 0 0 0 0 0
          0 0 0 0 0 0
          0 0 0 0 0 0
          0 0 0 0 0 0
          0 0 0 0 0 0
          0 0 0 0 0 0
          0 0 0 0 0 0
          0 0 0 0 0 0
          0 0 0 0 0 0
          0 0 0 0 0 0
          0 0 0 0 0 0
          0 0 0 0 0 0
          0 0 0 0 0 0
          0 0 0 0 0 0
          0 0 0 0 0 0
          0 0 0 0 0 0
          0 0 0 0 0 0
          0 0 0 0 0 0
          0 0 0 0 0 0
          0 0 0 0 0 0
          0 0 0 0 0 0
          0 0 0 0 0 0
          0 0 0 0 0 0
          0 0 0 0 0 0
          0 0 0 0 0 0
          0 0 0 0 0 0
          0 0 0 0 0 0
          0 0 0 0 0 0
          0 0 0 0 0 0
          0 0 0 0 0 0
          0 0 0 0 0 0
          0 0 0 0 0 0
          0 0 0 0 0 0
          0 0 0 0 0 0
          0 0 0 0 0 0
          0 0 0 0 0 0
          0 0 0 0 0 0
          0 0 0 0 0 0
          0 0 0 0 0 0
          0 0 0 0 0 0
          0 0 0 0 0 0
          0 0 0 0 0 0
          0 0 0 0 0 0
          0 0 0 0 0 0
          0 0 0 0 0 0
          0 0 0 0 0 0
          0 0 0 0 0 0
          0 0 0 0 0 0
          0 0 0 0 0 0
          0 0 0 0 0 0
          0 0 0 0 0 0
          0 0 0 0 0 0
          0 0 0 0 0 0
          0 0 0 0 0 0
          0 0 0 0 0 0
          0 0 0 0 0 0
          0 0 0 0 0 0
          0 0 0 0 0 0
          0 0 0 0 0 0
          0 0 0 0 0 0
          0 0 0 0 0 0
          0 0 0 0 0 0
          0 0 0 0 0 0
          0 0 0 0 0 0
          0 0 0 0 0 0
          0 0 0 0 0 0
          0 0 0 0 0 0
          0 0 0 0 0 0
          0 0 0 0 0 0
          0 0 0 0 0 0
          0 0 0 0 0 0
          0 0 0 0 0 0
          0 0 0 0 0 0
          0 0 0 0 0 0
          0 0 0 0 0 0
          0 0 0 0 0 0
          0 0 0 0 0 0
          0 0 0 0 0 0
          0 0 0 0 0 0
          0 0 0 0 0 0
          0 0 0 0 0 0
          0 0 0 0 0 0
          0 0 0 0 0 0
          0 0 0 0 0 0
          0 0 0 0 0 0
          0 0 0 0 0 0
          0 0 0 0 0 0
          0 0 0 0 0 0
          0 0 0 0 0 0
          0 0 0 0 0 0
          0 0 0 0 0 0
          0 0 0 0 0 0
          0 0 0 0 0 0
          0 0 0 0 0 0
          0 0 0 0 0 0
          0 0 0 0 0 0
          0 0 0 0 0 0
          0 0 0 0 0 0
          0 0 0 0 0 0
          0 0 0 0 0 0
          0 0 0 0 0 0
          0 0 0 0 0 0
          0 0 0 0 0 0
          0 0 0 0 0 0
          0 0 0 0 0 0
          0 0 0 0 0 0
          0 0 0 0 0 0
          0 0 0 0 0 0
          0 0 0 0 0 0
          0 0 0 0 0 0
          0 0 0 0 0 0
          0 0 0 0 0 0
          0 0 0 0 0 0
          0 0 0 0 0 0
          0 0 0 0 0 0
          0 0 0 0 0 0
          0 0 0 0 0 0
          0 0 0 0 0 0
          0 0 0 0 0 0
          0 0 0 0 0 0
          0 0 0 0 0 0
          0 0 0 0 0 0
          0 0 0 0 0 0
          0 0 0 0 0 0
          0 0 0 0 0 0
          0 0 0 0 0 0
          0 0 0 0 0 0
          0 0 0 0 0 0
          0 0 0 0 0 0
          0 0 0 0 0 0
          0 0 0 0 0 0
          0 0 0 0 0 0
          0 0 0 0 0 0
          0 0 0 0 0 0
          0 0 0 0 0 0
          0 0 0 0 0 0
          0 0 0 0 0 0
          0 0 0 0 0 0
          0 0 0 0 0 0
          0 0 0 0 0 0
          0 0 0 0 0 0
          0 0 0 0 0 0
          0 0 0 0 0 0
          0 0 0 0 0 0
          0 0 0 0 0 0
          0 0 0 0 0 0
          0 0 0 0 0 0
          0 0 0 0 0 0
          0 0 0 0 0 0
          0 0 0 0 0 0
          0 0 0 0 0 0
          0 0 0 0 0 0
          0 0 0 0 0 0
          0 0 0 0 0 0
          0 0 0 0 0 0
          0 0 0 0 0 0
          0 0 0 0 0 0
          0 0 0 0 0 0
          0 0 0 0 0 0
          0 0 0 0 0 0
          0 0 0 0 0 0
          0 0 0 0 0 0
          0 0 0 0 0 0
          0 0 0 0 0 0
          0 0 0 0 0 0
          0 0 0 0 0 0
          0 0 0 0 0 0
          0 0 0 0 0 0
          0 0 0 0 0 0
          0 0 0 0 0 0
          0 0 0 0 0 0
          0 0 0 0 0 0
          0 0 0 0 0 0
          0 0 0 0 0 0
          0 0 0 0 0 0
          0 0 0 0 0 0
          0 0 0 0 0 0
          0 0 0 0 0 0
          0 0 0 0 0 0
          0 0 0 0 0 0
          0 0 0 0 0 0
          0 0 0 0 0 0
          0 0 0 0 0 0
          0 0 0 0 0 0
          0 0 0 0 0 0
          0 0 0 0 0 0
          0 0 0 0 0 0
          0 0 0 0 0 0
          0 0 0 0 0 0
          0 0 0 0 0 0
          0 0 0 0 0 0
          0 0 0 0 0 0
          0 0 0 0 0 0
          0 0 0 0 0 0
          0 0 0 0 0 0
          0 0 0 0 0 0
          0 0 0 0 0 0
          0 0 0 0 0 0
          0 0 0 0 0 0
          0 0 0 0 0 0
          0 0 0 0 0 0
          0 0 0 0 0 0
          0 0 0 0 0 0
          0 0 0 0 0 0
          0 0 0 0 0 0
          0 0 0 0 0 0
          0 0 0 0 0 0
          0 0 0 0 0 0
          0 0 0 0 0 0
          0 0 0 0 0 0
          0 0 0 0 0 0
          0 0 0 0 0 0
          0 0 0 0 0 0
          0 0 0 0 0 0
          0 0 0 0 0 0
          0 0 0 0 0 0
          0 0 0 0 0 0
          0 0 0 0 0 0
          0 0 0 0 0 0
          0 0 0 0 0 0
          0 0 0 0 0 0
          0 0 0 0 0 0
          0 0 0 0 0 0
          0 0 0 0 0 0
          0 0 0 0 0 0
          0 0 0 0 0 0
          0 0 0 0 0 0
          0 0 0 0 0 0
          0 0 0 0 0 0
          0 0 0 0 0 0
          0 0 0 0 0 0
          0 0 0 0 0 0
          0 0 0 0 0 0
          0 0 0 0 0 0
          0 0 0 0 0 0
          0 0 0 0 0 0
          0 0 0 0 0 0
          0 0 0 0 0 0
          0 0 0 0 0 0
          0 0 0 0 0 0
          0 0 0 0 0 0
          0 0 0 0 0 0
          0 0 0 0 0 0
          0 0 0 0 0 0
          0 0 0 0 0 0
          0 0 0 0 0 0
          0 0 0 0 0 0
          0 0 0 0 0 0
          0 0 0 0 0 0
          0 0 0 0 0 0
          0 0 0 0 0 0
          0 0 0 0 0 0
          0 0 0 0 0 0
          0 0 0 0 0 0
          0 0 0 0 0 0
          0 0 0 0 0 0
          0 0 0 0 0 0
          0 0 0 0 0 0
          0 0 0 0 0 0
          0 0 0 0 0 0
          0 0 0 0 0 0
          0 0 0 0 0 0
          0 0 0 0 0 0
          0 0 0 0 0 0
          0 0 0 0 0 0
          0 0 0 0 0 0
          0 0 0 0 0 0
          0 0 0 0 0 0
          0 0 0 0 0 0
          0 0 0 0 0 0
          0 0 0 0 0 0
          0 0 0 0 0 0
          0 0 0 0 0 0
          0 0 0 0 0 0
          0 0 0 0 0 0
          0 0 0 0 0 0
          0 0 0 0 0 0
          0 0 0 0 0 0
          0 0 0 0 0 0
          0 0 0 0 0 0
          0 0 0 0 0 0
          0 0 0 0 0 0
          0 0 0 0 0 0
          0 0 0 0 0 0
          0 0 0 0 0 0
          0 0 0 0 0 0
          0 0 0 0 0 0
          0 0 0 0 0 0
          0 0 0 0 0 0
          0 0 0 0 0 0
          0 0 0 0 0 0
          0 0 0 0 0 0
          0 0 0 0 0 0
          0 0 0 0 0 0
          0 0 0 0 0 0
          0 0 0 0 0 0
          0 0 0 0 0 0
          0 0 0 0 0 0
          0 0 0 0 0 0
          0 0 0 0 0 0
          0 0 0 0 0 0
          0 0 0 0 0 0
          0 0 0 0 0 0
          0 0 0 0 0 0
          0 0 0 0 0 0
          0 0 0 0 0 0
          0 0 0 0 0 0
          0 0 0 0 0 0
          0 0 0 0 0 0
          0 0 0 0 0 0
          0 0 0 0 0 0
          0 0 0 0 0 0
          0 0 0 0 0 0
          0 0 0 0 0 0
          0 0 0 0 0 0
          0 0 0 0 0 0
          0 0 0 0 0 0
          0 0 0 0 0 0
          0 0 0 0 0 0
          0 0 0 0 0 0
          0 0 0 0 0 0
          0 0 0 0 0 0
          0 0 0 0 0 0
          0 0 0 0 0 0
          0 0 0 0 0 0
          0 0 0 0 0 0
          0 0 0 0 0 0
          0 0 0 0 0 0
          0 0 0 0 0 0
          0 0 0 0 0 0
          0 0 0 0 0 0
          0 0 0 0 0 0
          0 0 0 0 0 0
          0 0 0 0 0 0
          0 0 0 0 0 0
          0 0 0 0 0 0
          0 0 0 0 0 0
          0 0 0 0 0 0
          0 0 0 0 0 0
          0 0 0 0 0 0
          0 0 0 0 0 0
          0 0 0 0 0 0
          0 0 0 0 0 0
          0 0 0 0 0 0
          0 0 0 0 0 0
          0 0 0 0 0 0
          0 0 0 0 0 0
          0 0 0 0 0 0
          0 0 0 0 0 0
          0 0 0 0 0 0
          0 0 0 0 0 0
          0 0 0 0 0 0
          0 0 0 0 0 0
          0 0 0 0 0 0
          0 0 0 0 0 0
          0 0 0 0 0 0
          0 0 0 0 0 0
          0 0 0 0 0 0
          0 0 0 0 0 0
          0 0 0 0 0 0
          0 0 0 0 0 0
          0 0 0 0 0 0
          0 0 0 0 0 0
          0 0 0 0 0 0
          0 0 0 0 0 0
          0 0 0 0 0 0
          0 0 0 0 0 0
          0 0 0 0 0 0
          0 0 0 0 0 0
          0 0 0 0 0 0
          0 0 0 0 0 0
          0 0 0 0 0 0
          0 0 0 0 0 0
          0 0 0 0 0 0
          0 0 0 0 0 0
          0 0 0 0 0 0
          0 0 0 0 0 0
          0 0 0 0 0 0
          0 0 0 0 0 0
          0 0 0 0 0 0
          0 0 0 0 0 0
          0 0 0 0 0 0
          0 0 0 0 0 0
          0 0 0 0 0 0
          0 0 0 0 0 0
          0 0 0 0 0 0
          0 0 0 0 0 0
          0 0 0 0 0 0
          0 0 0 0 0 0
          0 0 0 0 0 0
          0 0 0 0 0 0
          0 0 0 0 0 0
          0 0 0 0 0 0
          0 0 0 0 0 0
          0 0 0 0 0 0
          0 0 0 0 0 0
          0 0 0 0 0 0
          0 0 0 0 0 0
          0 0 0 0 0 0
          0 0 0 0 0 0
          0 0 0 0 0 0
          0 0 0 0 0 0
          0 0 0 0 0 0
          0 0 0 0 0 0
          0 0 0 0 0 0
          0 0 0 0 0 0
          0 0 0 0 0 0
          0 0 0 0 0 0
          0 0 0 0 0 0
          0 0 0 0 0 0
          0 0 0 0 0 0
          0 0 0 0 0 0
          0 0 0 0 0 0
          0 0 0 0 0 0
          0 0 0 0 0 0
          0 0 0 0 0 0
          0 0 0 0 0 0
          0 0 0 0 0 0
          0 0 0 0 0 0
          0 0 0 0 0 0
          0 0 0 0 0 0
          0 0 0 0 0 0
          0 0 0 0 0 0
          0 0 0 0 0 0
          0 0 0 0 0 0
          0 0 0 0 0 0
          0 0 0 0 0 0
          0 0 0 0 0 0
          0 0 0 0 0 0
          0 0 0 0 0 0
          0 0 0 0 0 0
          0 0 0 0 0 0
          0 0 0 0 0 0
          0 0 0 0 0 0
          0 0 0 0 0 0
          0 0 0 0 0 0
          0 0 0 0 0 0
          0 0 0 0 0 0
          0 0 0 0 0 0
          0 0 0 0 0 0
          0 0 0 0 0 0
          0 0 0 0 0 0
          0 0 0 0 0 0
          0 0 0 0 0 0
          0 0 0 0 0 0
          0 0 0 0 0 0
          0 0 0 0 0 0
          0 0 0 0 0 0
          0 0 0 0 0 0
          0 0 0 0 0 0
          0 0 0 0 0 0
          0 0 0 0 0 0
          0 0 0 0 0 0
          0 0 0 0 0 0
          0 0 0 0 0 0
          0 0 0 0 0 0
          0 0 0 0 0 0
          0 0 0 0 0 0
          0 0 0 0 0 0
          0 0 0 0 0 0
          0 0 0 0 0 0
          0 0 0 0 0 0
          0 0 0 0 0 0
          0 0 0 0 0 0
          0 0 0 0 0 0
          0 0 0 0 0 0
          0 0 0 0 0 0
          0 0 0 0 0 0
          0 0 0 0 0 0
          0 0 0 0 0 0
          0 0 0 0 0 0
          0 0 0 0 0 0
          0 0 0 0 0 0
          0 0 0 0 0 0
          0 0 0 0 0 0
          0 0 0 0 0 0
          0 0 0 0 0 0
          0 0 0 0 0 0
          0 0 0 0 0 0
          0 0 0 0 0 0
          0 0 0 0 0 0
          0 0 0 0 0 0
          0 0 0 0 0 0
          0 0 0 0 0 0
          0 0 0 0 0 0
          0 0 0 0 0 0
          0 0 0 0 0 0
          0 0 0 0 0 0
          0 0 0 0 0 0
          0 0 0 0 0 0
          0 0 0 0 0 0
          0 0 0 0 0 0
          0 0 0 0 0 0
          0 0 0 0 0 0
          0 0 0 0 0 0
          0 0 0 0 0 0
          0 0 0 0 0 0
          0 0 0 0 0 0
          0 0 0 0 0 0
          0 0 0 0 0 0
          0 0 0 0 0 0
          0 0 0 0 0 0
          0 0 0 0 0 0
          0 0 0 0 0 0
          0 0 0 0 0 0
          0 0 0 0 0 0
          0 0 0 0 0 0
          0 0 0 0 0 0
          0 0 0 0 0 0
          0 0 0 0 0 0
          0 0 0 0 0 0
          0 0 0 0 0 0
          0 0 0 0 0 0
          0 0 0 0 0 0
          0 0 0 0 0 0
          0 0 0 0 0 0
          0 0 0 0 0 0
          0 0 0 0 0 0
          0 0 0 0 0 0
          0 0 0 0 0 0
          0 0 0 0 0 0
          0 0 0 0 0 0
          0 0 0 0 0 0
          0 0 0 0 0 0
          0 0 0 0 0 0
          0 0 0 0 0 0
          0 0 0 0 0 0
          0 0 0 0 0 0
          0 0 0 0 0 0
          0 0 0 0 0 0
          0 0 0 0 0 0
          0 0 0 0 0 0
          0 0 0 0 0 0
          0 0 0 0 0 0
          0 0 0 0 0 0
          0 0 0 0 0 0
          0 0 0 0 0 0
          0 0 0 0 0 0
          0 0 0 0 0 0
          0 0 0 0 0 0
          0 0 0 0 0 0
          0 0 0 0 0 0
          0 0 0 0 0 0
          0 0 0 0 0 0
          0 0 0 0 0 0
          0 0 0 0 0 0
          0 0 0 0 0 0
          0 0 0 0 0 0
          0 0 0 0 0 0
          0 0 0 0 0 0
          0 0 0 0 0 0
          0 0 0 0 0 0
          0 0 0 0 0 0
          0 0 0 0 0 0
          0 0 0 0 0 0
          0 0 0 0 0 0
          0 0 0 0 0 0
          0 0 0 0 0 0
          0 0 0 0 0 0
          0 0 0 0 0 0
          0 0 0 0 0 0
          0 0 0 0 0 0
          0 0 0 0 0 0
          0 0 0 0 0 0
          0 0 0 0 0 0
          0 0 0 0 0 0
          0 0 0 0 0 0
          0 0 0 0 0 0
          0 0 0 0 0 0
          0 0 0 0 0 0
          0 0 0 0 0 0
          0 0 0 0 0 0
          0 0 0 0 0 0
          0 0 0 0 0 0
          0 0 0 0 0 0
          0 0 0 0 0 0
          0 0 0 0 0 0
          0 0 0 0 0 0
          0 0 0 0 0 0
          0 0 0 0 0 0
          0 0 0 0 0 0
          0 0 0 0 0 0
          0 0 0 0 0 0
          0 0 0 0 0 0
          0 0 0 0 0 0
          0 0 0 0 0 0
          0 0 0 0 0 0
          0 0 0 0 0 0
          0 0 0 0 0 0
          0 0 0 0 0 0
          0 0 0 0 0 0
          0 0 0 0 0 0
          0 0 0 0 0 0
          0 0 0 0 0 0
          0 0 0 0 0 0
          0 0 0 0 0 0
          0 0 0 0 0 0
          0 0 0 0 0 0
          0 0 0 0 0 0
          0 0 0 0 0 0
          0 0 0 0 0 0
          0 0 0 0 0 0
          0 0 0 0 0 0
          0 0 0 0 0 0
          0 0 0 0 0 0
          0 0 0 0 0 0
          0 0 0 0 0 0
          0 0 0 0 0 0
          0 0 0 0 0 0
          0 0 0 0 0 0
          0 0 0 0 0 0
          0 0 0 0 0 0
          0 0 0 0 0 0
          0 0 0 0 0 0
          0 0 0 0 0 0
          0 0 0 0 0 0
          0 0 0 0 0 0
          0 0 0 0 0 0
          0 0 0 0 0 0
          0 0 0 0 0 0
          0 0 0 0 0 0
          0 0 0 0 0 0
          0 0 0 0 0 0
          0 0 0 0 0 0
          0 0 0 0 0 0
          0 0 0 0 0 0
          0 0 0 0 0 0
          0 0 0 0 0 0
          0 0 0 0 0 0
          0 0 0 0 0 0
          0 0 0 0 0 0
          0 0 0 0 0 0
          0 0 0 0 0 0
          0 0 0 0 0 0
          0 0 0 0 0 0
          0 0 0 0 0 0
          0 0 0 0 0 0
          0 0 0 0 0 0
          0 0 0 0 0 0
          0 0 0 0 0 0
          0 0 0 0 0 0
          0 0 0 0 0 0
          0 0 0 0 0 0
          0 0 0 0 0 0
          0 0 0 0 0 0
          0 0 0 0 0 0
          0 0 0 0 0 0
          0 0 0 0 0 0
          0 0 0 0 0 0
          0 0 0 0 0 0
          0 0 0 0 0 0
          0 0 0 0 0 0
          0 0 0 0 0 0
          0 0 0 0 0 0
          0 0 0 0 0 0
          0 0 0 0 0 0
          0 0 0 0 0 0
          0 0 0 0 0 0
          0 0 0 0 0 0
          0 0 0 0 0 0
          0 0 0 0 0 0
          0 0 0 0 0 0
          0 0 0 0 0 0
          0 0 0 0 0 0
          0 0 0 0 0 0
          0 0 0 0 0 0
          0 0 0 0 0 0
          0 0 0 0 0 0
          0 0 0 0 0 0
          0 0 0 0 0 0
          0 0 0 0 0 0
          0 0 0 0 0 0
          0 0 0 0 0 0
          0 0 0 0 0 0
          0 0 0 0 0 0
          0 0 0 0 0 0
          0 0 0 0 0 0
          0 0 0 0 0 0
          0 0 0 0 0 0
          0 0 0 0 0 0
          0 0 0 0 0 0
          0 0 0 0 0 0
          0 0 0 0 0 0
          0 0 0 0 0 0
          0 0 0 0 0 0
          0 0 0 0 0 0
          0 0 0 0 0 0
          0 0 0 0 0 0
          0 0 0 0 0 0
          0 0 0 0 0 0
          0 0 0 0 0 0
          0 0 0 0 0 0
          0 0 0 0 0 0
          0 0 0 0 0 0
          0 0 0 0 0 0
          0 0 0 0 0 0
          0 0 0 0 0 0
          0 0 0 0 0 0
          0 0 0 0 0 0
          0 0 0 0 0 0
          0 0 0 0 0 0
          0 0 0 0 0 0
          0 0 0 0 0 0
          0 0 0 0 0 0
          0 0 0 0 0 0
          0 0 0 0 0 0
          0 0 0 0 0 0
          0 0 0 0 0 0
          0 0 0 0 0 0
          0 0 0 0 0 0
          0 0 0 0 0 0
          0 0 0 0 0 0
          0 0 0 0 0 0
          0 0 0 0 0 0
          0 0 0 0 0 0
          0 0 0 0 0 0
          0 0 0 0 0 0
          0 0 0 0 0 0
          0 0 0 0 0 0
          0 0 0 0 0 0
          0 0 0 0 0 0
          0 0 0 0 0 0
          0 0 0 0 0 0
          0 0 0 0 0 0
          0 0 0 0 0 0
          0 0 0 0 0 0
          0 0 0 0 0 0
          0 0 0 0 0 0
          0 0 0 0 0 0
          0 0 0 0 0 0
          0 0 0 0 0 0
          0 0 0 0 0 0
          0 0 0 0 0 0
          0 0 0 0 0 0
          0 0 0 0 0 0
          0 0 0 0 0 0
          0 0 0 0 0 0
          0 0 0 0 0 0
          0 0 0 0 0 0
          0 0 0 0 0 0
          0 0 0 0 0 0
          0 0 0 0 0 0
          0 0 0 0 0 0
          0 0 0 0 0 0
          0 0 0 0 0 0
          0 0 0 0 0 0
          0 0 0 0 0 0
          0 0 0 0 0 0
          0 0 0 0 0 0
          0 0 0 0 0 0
          0 0 0 0 0 0
          0 0 0 0 0 0
          0 0 0 0 0 0
          0 0 0 0 0 0
          0 0 0 0 0 0
          0 0 0 0 0 0
          0 0 0 0 0 0
          0 0 0 0 0 0
          0 0 0 0 0 0
          0 0 0 0 0 0
          0 0 0 0 0 0
          0 0 0 0 0 0
          0 0 0 0 0 0
          0 0 0 0 0 0
          0 0 0 0 0 0
          0 0 0 0 0 0
          0 0 0 0 0 0
          0 0 0 0 0 0
          0 0 0 0 0 0
          0 0 0 0 0 0
          0 0 0 0 0 0
          0 0 0 0 0 0
          0 0 0 0 0 0
          0 0 0 0 0 0
          0 0 0 0 0 0
          0 0 0 0 0 0
          0 0 0 0 0 0
          0 0 0 0 0 0
          0 0 0 0 0 0
          0 0 0 0 0 0
          0 0 0 0 0 0
          0 0 0 0 0 0
          0 0 0 0 0 0
          0 0 0 0 0 0
          0 0 0 0 0 0
          0 0 0 0 0 0
          0 0 0 0 0 0
          0 0 0 0 0 0
          0 0 0 0 0 0
          0 0 0 0 0 0
          0 0 0 0 0 0
          0 0 0 0 0 0
          0 0 0 0 0 0
          0 0 0 0 0 0
          0 0 0 0 0 0
          0 0 0 0 0 0
          0 0 0 0 0 0
          0 0 0 0 0 0
          0 0 0 0 0 0
          0 0 0 0 0 0
          0 0 0 0 0 0
          0 0 0 0 0 0
          0 0 0 0 0 0
          0 0 0 0 0 0
          0 0 0 0 0 0
          0 0 0 0 0 0
          0 0 0 0 0 0
          0 0 0 0 0 0
          0 0 0 0 0 0
          0 0 0 0 0 0
          0 0 0 0 0 0
          0 0 0 0 0 0
          0 0 0 0 0 0
          0 0 0 0 0 0
          0 0 0 0 0 0
          0 0 0 0 0 0
          0 0 0 0 0 0
          0 0 0 0 0 0
          0 0 0 0 0 0
          0 0 0 0 0 0
          0 0 0 0 0 0
          0 0 0 0 0 0
          0 0 0 0 0 0
          0 0 0 0 0 0
          0 0 0 0 0 0
          0 0 0 0 0 0
          0 0 0 0 0 0
          0 0 0 0 0 0
          0 0 0 0 0 0
          0 0 0 0 0 0
          0 0 0 0 0 0
          0 0 0 0 0 0
          0 0 0 0 0 0
          0 0 0 0 0 0
          0 0 0 0 0 0
          0 0 0 0 0 0
          0 0 0 0 0 0
          0 0 0 0 0 0
          0 0 0 0 0 0
          0 0 0 0 0 0
          0 0 0 0 0 0
          0 0 0 0 0 0
          0 0 0 0 0 0
          0 0 0 0 0 0
          0 0 0 0 0 0
          0 0 0 0 0 0
          0 0 0 0 0 0
          0 0 0 0 0 0
          0 0 0 0 0 0
          0 0 0 0 0 0
          0 0 0 0 0 0
          0 0 0 0 0 0
          0 0 0 0 0 0
          0 0 0 0 0 0
          0 0 0 0 0 0
          0 0 0 0 0 0
          0 0 0 0 0 0
          0 0 0 0 0 0
          0 0 0 0 0 0
          0 0 0 0 0 0
          0 0 0 0 0 0
          0 0 0 0 0 0
          0 0 0 0 0 0
          0 0 0 0 0 0
          0 0 0 0 0 0
          0 0 0 0 0 0
          0 0 0 0 0 0
          0 0 0 0 0 0
          0 0 0 0 0 0
          0 0 0 0 0 0
          0 0 0 0 0 0
          0 0 0 0 0 0
          0 0 0 0 0 0
          0 0 0 0 0 0
          0 0 0 0 0 0
          0 0 0 0 0 0
          0 0 0 0 0 0
          0 0 0 0 0 0
          0 0 0 0 0 0
          0 0 0 0 0 0
          0 0 0 0 0 0
          0 0 0 0 0 0
          0 0 0 0 0 0
          0 0 0 0 0 0
          0 0 0 0 0 0
          0 0 0 0 0 0
          0 0 0 0 0 0
          0 0 0 0 0 0
          0 0 0 0 0 0
          0 0 0 0 0 0
          0 0 0 0 0 0
          0 0 0 0 0 0
          0 0 0 0 0 0
          0 0 0 0 0 0
          0 0 0 0 0 0
          0 0 0 0 0 0
          0 0 0 0 0 0
          0 0 0 0 0 0
          0 0 0 0 0 0
          0 0 0 0 0 0
          0 0 0 0 0 0
          0 0 0 0 0 0
          0 0 0 0 0 0
          0 0 0 0 0 0
          0 0 0 0 0 0
          0 0 0 0 0 0
          0 0 0 0 0 0
          0 0 0 0 0 0
          0 0 0 0 0 0
          0 0 0 0 0 0
          0 0 0 0 0 0
          0 0 0 0 0 0
          0 0 0 0 0 0
          0 0 0 0 0 0
          0 0 0 0 0 0
          0 0 0 0 0 0
          0 0 0 0 0 0
          0 0 0 0 0 0
          0 0 0 0 0 0
          0 0 0 0 0 0
          0 0 0 0 0 0
          0 0 0 0 0 0
          0 0 0 0 0 0
          0 0 0 0 0 0
          0 0 0 0 0 0
          0 0 0 0 0 0
          0 0 0 0 0 0
          0 0 0 0 0 0
          0 0 0 0 0 0
          0 0 0 0 0 0
          0 0 0 0 0 0
          0 0 0 0 0 0
          0 0 0 0 0 0
          0 0 0 0 0 0
          0 0 0 0 0 0
          0 0 0 0 0 0
          0 0 0 0 0 0
          0 0 0 0 0 0
          0 0 0 0 0 0
          0 0 0 0 0 0
          0 0 0 0 0 0
          0 0 0 0 0 0
          0 0 0 0 0 0
          0 0 0 0 0 0
          0 0 0 0 0 0
          0 0 0 0 0 0
          0 0 0 0 0 0
          0 0 0 0 0 0
          0 0 0 0 0 0
          0 0 0 0 0 0
          0 0 0 0 0 0
          0 0 0 0 0 0
          0 0 0 0 0 0
          0 0 0 0 0 0
          0 0 0 0 0 0
          0 0 0 0 0 0
          0 0 0 0 0 0
          0 0 0 0 0 0
          0 0 0 0 0 0
          0 0 0 0 0 0
          0 0 0 0 0 0
          0 0 0 0 0 0
          0 0 0 0 0 0
          0 0 0 0 0 0
          0 0 0 0 0 0
          0 0 0 0 0 0
          0 0 0 0 0 0
          0 0 0 0 0 0
          0 0 0 0 0 0
          0 0 0 0 0 0
          0 0 0 0 0 0
          0 0 0 0 0 0
          0 0 0 0 0 0
          0 0 0 0 0 0
          0 0 0 0 0 0
          0 0 0 0 0 0
          0 0 0 0 0 0
          0 0 0 0 0 0
          0 0 0 0 0 0
          0 0 0 0 0 0
          0 0 0 0 0 0
          0 0 0 0 0 0
          0 0 0 0 0 0
          0 0 0 0 0 0
          0 0 0 0 0 0
          0 0 0 0 0 0
          0 0 0 0 0 0
          0 0 0 0 0 0
          0 0 0 0 0 0
          0 0 0 0 0 0
          0 0 0 0 0 0
          0 0 0 0 0 0
          0 0 0 0 0 0
          0 0 0 0 0 0
          0 0 0 0 0 0
          0 0 0 0 0 0
          0 0 0 0 0 0
          0 0 0 0 0 0
          0 0 0 0 0 0
          0 0 0 0 0 0
          0 0 0 0 0 0
          0 0 0 0 0 0
          0 0 0 0 0 0
          0 0 0 0 0 0
          0 0 0 0 0 0
          0 0 0 0 0 0
          0 0 0 0 0 0
          0 0 0 0 0 0
          0 0 0 0 0 0
          0 0 0 0 0 0
          0 0 0 0 0 0
          0 0 0 0 0 0
          0 0 0 0 0 0
          0 0 0 0 0 0
          0 0 0 0 0 0
          0 0 0 0 0 0
          0 0 0 0 0 0
          0 0 0 0 0 0
          0 0 0 0 0 0
          0 0 0 0 0 0
          0 0 0 0 0 0
          0 0 0 0 0 0
          0 0 0 0 0 0
          0 0 0 0 0 0
          0 0 0 0 0 0
          0 0 0 0 0 0
          0 0 0 0 0 0
          0 0 0 0 0 0
          0 0 0 0 0 0
          0 0 0 0 0 0
          0 0 0 0 0 0
          0 0 0 0 0 0
          0 0 0 0 0 0
          0 0 0 0 0 0
          0 0 0 0 0 0
          0 0 0 0 0 0
          0 0 0 0 0 0
          0 0 0 0 0 0
          0 0 0 0 0 0
          0 0 0 0 0 0
          0 0 0 0 0 0
          0 0 0 0 0 0
          0 0 0 0 0 0
          0 0 0 0 0 0
          0 0 0 0 0 0
          0 0 0 0 0 0
          0 0 0 0 0 0
          0 0 0 0 0 0
          0 0 0 0 0 0
          0 0 0 0 0 0
          0 0 0 0 0 0
          0 0 0 0 0 0
          0 0 0 0 0 0
          0 0 0 0 0 0
          0 0 0 0 0 0
          0 0 0 0 0 0
          0 0 0 0 0 0
          0 0 0 0 0 0
          0 0 0 0 0 0
          0 0 0 0 0 0
          0 0 0 0 0 0
          0 0 0 0 0 0
          0 0 0 0 0 0
          0 0 0 0 0 0
          0 0 0 0 0 0
          0 0 0 0 0 0
          0 0 0 0 0 0
          0 0 0 0 0 0
          0 0 0 0 0 0
          0 0 0 0 0 0
          0 0 0 0 0 0
          0 0 0 0 0 0
          0 0 0 0 0 0
          0 0 0 0 0 0
          0 0 0 0 0 0
          0 0 0 0 0 0
          0 0 0 0 0 0
          0 0 0 0 0 0
          0 0 0 0 0 0
          0 0 0 0 0 0
          0 0 0 0 0 0
          0 0 0 0 0 0
          0 0 0 0 0 0
          0 0 0 0 0 0
          0 0 0 0 0 0
          0 0 0 0 0 0
          0 0 0 0 0 0
          0 0 0 0 0 0
          0 0 0 0 0 0
          0 0 0 0 0 0
          0 0 0 0 0 0
          0 0 0 0 0 0
          0 0 0 0 0 0
          0 0 0 0 0 0
          0 0 0 0 0 0
          0 0 0 0 0 0
          0 0 0 0 0 0
          0 0 0 0 0 0
          0 0 0 0 0 0
          0 0 0 0 0 0
          0 0 0 0 0 0
          0 0 0 0 0 0
          0 0 0 0 0 0
          0 0 0 0 0 0
          0 0 0 0 0 0
          0 0 0 0 0 0
          0 0 0 0 0 0
          0 0 0 0 0 0
          0 0 0 0 0 0
          0 0 0 0 0 0
          0 0 0 0 0 0
          0 0 0 0 0 0
          0 0 0 0 0 0
          0 0 0 0 0 0
          0 0 0 0 0 0
          0 0 0 0 0 0
          0 0 0 0 0 0
          0 0 0 0 0 0
          0 0 0 0 0 0
          0 0 0 0 0 0
          0 0 0 0 0 0
          0 0 0 0 0 0
          0 0 0 0 0 0
          0 0 0 0 0 0
          0 0 0 0 0 0
          0 0 0 0 0 0
          0 0 0 0 0 0
          0 0 0 0 0 0
          0 0 0 0 0 0
          0 0 0 0 0 0
          0 0 0 0 0 0
          0 0 0 0 0 0
          0 0 0 0 0 0
          0 0 0 0 0 0
          0 0 0 0 0 0
          0 0 0 0 0 0
          0 0 0 0 0 0
          0 0 0 0 0 0
          0 0 0 0 0 0
          0 0 0 0 0 0
          0 0 0 0 0 0
          0 0 0 0 0 0
          0 0 0 0 0 0
          0 0 0 0 0 0
          0 0 0 0 0 0
          0 0 0 0 0 0
          0 0 0 0 0 0
          0 0 0 0 0 0
          0 0 0 0 0 0
          0 0 0 0 0 0
          0 0 0 0 0 0
          0 0 0 0 0 0
          0 0 0 0 0 0
          0 0 0 0 0 0
          0 0 0 0 0 0
          0 0 0 0 0 0
          0 0 0 0 0 0
          0 0 0 0 0 0
          0 0 0 0 0 0
          0 0 0 0 0 0
          0 0 0 0 0 0
          0 0 0 0 0 0
          0 0 0 0 0 0
          0 0 0 0 0 0
          0 0 0 0 0 0
          0 0 0 0 0 0
          0 0 0 0 0 0
          0 0 0 0 0 0
          0 0 0 0 0 0
          0 0 0 0 0 0
          0 0 0 0 0 0
          0 0 0 0 0 0
          0 0 0 0 0 0
          0 0 0 0 0 0
          0 0 0 0 0 0
          0 0 0 0 0 0
          0 0 0 0 0 0
          0 0 0 0 0 0
          0 0 0 0 0 0
          0 0 0 0 0 0
          0 0 0 0 0 0
          0 0 0 0 0 0
          0 0 0 0 0 0
          0 0 0 0 0 0
          0 0 0 0 0 0
          0 0 0 0 0 0
          0 0 0 0 0 0
          0 0 0 0 0 0
          0 0 0 0 0 0
          0 0 0 0 0 0
          0 0 0 0 0 0
          0 0 0 0 0 0
          0 0 0 0 0 0
          0 0 0 0 0 0
          0 0 0 0 0 0
          0 0 0 0 0 0
          0 0 0 0 0 0
          0 0 0 0 0 0
          0 0 0 0 0 0
          0 0 0 0 0 0
          0 0 0 0 0 0
          0 0 0 0 0 0
          0 0 0 0 0 0
          0 0 0 0 0 0
          0 0 0 0 0 0
          0 0 0 0 0 0
          0 0 0 0 0 0
          0 0 0 0 0 0
          0 0 0 0 0 0
          0 0 0 0 0 0
          0 0 0 0 0 0
          0 0 0 0 0 0
          0 0 0 0 0 0
          0 0 0 0 0 0
          0 0 0 0 0 0
          0 0 0 0 0 0
          0 0 0 0 0 0
          0 0 0 0 0 0
          0 0 0 0 0 0
          0 0 0 0 0 0
          0 0 0 0 0 0
          0 0 0 0 0 0
          0 0 0 0 0 0
          0 0 0 0 0 0
          0 0 0 0 0 0
          0 0 0 0 0 0
          0 0 0 0 0 0
          0 0 0 0 0 0
          0 0 0 0 0 0
          0 0 0 0 0 0
          0 0 0 0 0 0
          0 0 0 0 0 0
          0 0 0 0 0 0
          0 0 0 0 0 0
          0 0 0 0 0 0
          0 0 0 0 0 0
          0 0 0 0 0 0
          0 0 0 0 0 0
          0 0 0 0 0 0
          0 0 0 0 0 0
          0 0 0 0 0 0
          0 0 0 0 0 0
          0 0 0 0 0 0
          0 0 0 0 0 0
          0 0 0 0 0 0
          0 0 0 0 0 0
          0 0 0 0 0 0
          0 0 0 0 0 0
          0 0 0 0 0 0
          0 0 0 0 0 0
          0 0 0 0 0 0
          0 0 0 0 0 0
          0 0 0 0 0 0
          0 0 0 0 0 0
          0 0 0 0 0 0
          0 0 0 0 0 0
          0 0 0 0 0 0
          0 0 0 0 0 0
          0 0 0 0 0 0
          0 0 0 0 0 0
          0 0 0 0 0 0
          0 0 0 0 0 0
          0 0 0 0 0 0
          0 0 0 0 0 0
          0 0 0 0 0 0
          0 0 0 0 0 0
          0 0 0 0 0 0
          0 0 0 0 0 0
          0 0 0 0 0 0
          0 0 0 0 0 0
          0 0 0 0 0 0
          0 0 0 0 0 0
          0 0 0 0 0 0
          0 0 0 0 0 0
          0 0 0 0 0 0
          0 0 0 0 0 0
          0 0 0 0 0 0
          0 0 0 0 0 0
          0 0 0 0 0 0
          0 0 0 0 0 0
          0 0 0 0 0 0
          0 0 0 0 0 0
          0 0 0 0 0 0
          0 0 0 0 0 0
          0 0 0 0 0 0
          0 0 0 0 0 0
          0 0 0 0 0 0
          0 0 0 0 0 0
          0 0 0 0 0 0
          0 0 0 0 0 0
          0 0 0 0 0 0
          0 0 0 0 0 0
          0 0 0 0 0 0
          0 0 0 0 0 0
          0 0 0 0 0 0
          0 0 0 0 0 0
          0 0 0 0 0 0
          0 0 0 0 0 0
          0 0 0 0 0 0
          0 0 0 0 0 0
          0 0 0 0 0 0
          0 0 0 0 0 0
          0 0 0 0 0 0
          0 0 0 0 0 0
          0 0 0 0 0 0
          0 0 0 0 0 0
          0 0 0 0 0 0
          0 0 0 0 0 0
          0 0 0 0 0 0
          0 0 0 0 0 0
          0 0 0 0 0 0
          0 0 0 0 0 0
          0 0 0 0 0 0
          0 0 0 0 0 0
          0 0 0 0 0 0
          0 0 0 0 0 0
          0 0 0 0 0 0
          0 0 0 0 0 0
          0 0 0 0 0 0
          0 0 0 0 0 0
          0 0 0 0 0 0
          0 0 0 0 0 0
          0 0 0 0 0 0
          0 0 0 0 0 0
          0 0 0 0 0 0
          0 0 0 0 0 0
          0 0 0 0 0 0
          0 0 0 0 0 0
          0 0 0 0 0 0
          0 0 0 0 0 0
          0 0 0 0 0 0
          0 0 0 0 0 0
          0 0 0 0 0 0
          0 0 0 0 0 0
          0 0 0 0 0 0
          0 0 0 0 0 0
          0 0 0 0 0 0
          0 0 0 0 0 0
          0 0 0 0 0 0
          0 0 0 0 0 0
          0 0 0 0 0 0
          0 0 0 0 0 0
          0 0 0 0 0 0
          0 0 0 0 0 0
          0 0 0 0 0 0
          0 0 0 0 0 0
          0 0 0 0 0 0
          0 0 0 0 0 0
          0 0 0 0 0 0
          0 0 0 0 0 0
          0 0 0 0 0 0
          0 0 0 0 0 0
          0 0 0 0 0 0
          0 0 0 0 0 0
          0 0 0 0 0 0
          0 0 0 0 0 0
          0 0 0 0 0 0
          0 0 0 0 0 0
          0 0 0 0 0 0
          0 0 0 0 0 0
          0 0 0 0 0 0
          0 0 0 0 0 0
          0 0 0 0 0 0
          0 0 0 0 0 0
          0 0 0 0 0 0
          0 0 0 0 0 0
          0 0 0 0 0 0
          0 0 0 0 0 0
          0 0 0 0 0 0
          0 0 0 0 0 0
          0 0 0 0 0 0
          0 0 0 0 0 0
          0 0 0 0 0 0
          0 0 0 0 0 0
          0 0 0 0 0 0
          0 0 0 0 0 0
          0 0 0 0 0 0
          0 0 0 0 0 0
          0 0 0 0 0 0
          0 0 0 0 0 0
          0 0 0 0 0 0
          0 0 0 0 0 0
          0 0 0 0 0 0
          0 0 0 0 0 0
          0 0 0 0 0 0
          0 0 0 0 0 0
          0 0 0 0 0 0
          0 0 0 0 0 0
          0 0 0 0 0 0
          0 0 0 0 0 0
          0 0 0 0 0 0
          0 0 0 0 0 0
          0 0 0 0 0 0
          0 0 0 0 0 0
          0 0 0 0 0 0
          0 0 0 0 0 0
          0 0 0 0 0 0
          0 0 0 0 0 0
          0 0 0 0 0 0
          0 0 0 0 0 0
          0 0 0 0 0 0
          0 0 0 0 0 0
          0 0 0 0 0 0
          0 0 0 0 0 0
          0 0 0 0 0 0
          0 0 0 0 0 0
          0 0 0 0 0 0
          0 0 0 0 0 0
          0 0 0 0 0 0
          0 0 0 0 0 0
          0 0 0 0 0 0
          0 0 0 0 0 0
          0 0 0 0 0 0
          0 0 0 0 0 0
          0 0 0 0 0 0
          0 0 0 0 0 0
          0 0 0 0 0 0
          0 0 0 0 0 0
          0 0 0 0 0 0
          0 0 0 0 0 0
          0 0 0 0 0 0
          0 0 0 0 0 0
          0 0 0 0 0 0
          0 0 0 0 0 0
          0 0 0 0 0 0
          0 0 0 0 0 0
          0 0 0 0 0 0
          0 0 0 0 0 0
          0 0 0 0 0 0
          0 0 0 0 0 0
          0 0 0 0 0 0
          0 0 0 0 0 0
          0 0 0 0 0 0
          0 0 0 0 0 0
          0 0 0 0 0 0
          0 0 0 0 0 0
          0 0 0 0 0 0
          0 0 0 0 0 0
          0 0 0 0 0 0
          0 0 0 0 0 0
          0 0 0 0 0 0
          0 0 0 0 0 0
          0 0 0 0 0 0
          0 0 0 0 0 0
          0 0 0 0 0 0
          0 0 0 0 0 0
          0 0 0 0 0 0
          0 0 0 0 0 0
          0 0 0 0 0 0
          0 0 0 0 0 0
          0 0 0 0 0 0
          0 0 0 0 0 0
          0 0 0 0 0 0
          0 0 0 0 0 0
          0 0 0 0 0 0
          0 0 0 0 0 0
          0 0 0 0 0 0
          0 0 0 0 0 0
          0 0 0 0 0 0
          0 0 0 0 0 0
          0 0 0 0 0 0
          0 0 0 0 0 0
          0 0 0 0 0 0
          0 0 0 0 0 0
          0 0 0 0 0 0
          0 0 0 0 0 0
          0 0 0 0 0 0
          0 0 0 0 0 0
          0 0 0 0 0 0
          0 0 0 0 0 0
          0 0 0 0 0 0
          0 0 0 0 0 0
          0 0 0 0 0 0
          0 0 0 0 0 0
          0 0 0 0 0 0
          0 0 0 0 0 0
          0 0 0 0 0 0
          0 0 0 0 0 0
          0 0 0 0 0 0
          0 0 0 0 0 0
          0 0 0 0 0 0
          0 0 0 0 0 0
          0 0 0 0 0 0
          0 0 0 0 0 0
          0 0 0 0 0 0
          0 0 0 0 0 0
          0 0 0 0 0 0
          0 0 0 0 0 0
          0 0 0 0 0 0
          0 0 0 0 0 0
          0 0 0 0 0 0
          0 0 0 0 0 0
          0 0 0 0 0 0
          0 0 0 0 0 0
          0 0 0 0 0 0
          0 0 0 0 0 0
          0 0 0 0 0 0
          0 0 0 0 0 0
          0 0 0 0 0 0
          0 0 0 0 0 0
          0 0 0 0 0 0
          0 0 0 0 0 0
          0 0 0 0 0 0
          0 0 0 0 0 0
          0 0 0 0 0 0
          0 0 0 0 0 0
          0 0 0 0 0 0
          0 0 0 0 0 0
          0 0 0 0 0 0
          0 0 0 0 0 0
          0 0 0 0 0 0
          0 0 0 0 0 0
          0 0 0 0 0 0
          0 0 0 0 0 0
          0 0 0 0 0 0
          0 0 0 0 0 0
          0 0 0 0 0 0
          0 0 0 0 0 0
          0 0 0 0 0 0
          0 0 0 0 0 0
          0 0 0 0 0 0
          0 0 0 0 0 0
          0 0 0 0 0 0
          0 0 0 0 0 0
          0 0 0 0 0 0
          0 0 0 0 0 0
          0 0 0 0 0 0
          0 0 0 0 0 0
          0 0 0 0 0 0
          0 0 0 0 0 0
          0 0 0 0 0 0
          0 0 0 0 0 0
          0 0 0 0 0 0
          0 0 0 0 0 0
          0 0 0 0 0 0
          0 0 0 0 0 0
          0 0 0 0 0 0
          0 0 0 0 0 0
          0 0 0 0 0 0
          0 0 0 0 0 0
          0 0 0 0 0 0
          0 0 0 0 0 0
          0 0 0 0 0 0
          0 0 0 0 0 0
          0 0 0 0 0 0
          0 0 0 0 0 0
          0 0 0 0 0 0
          0 0 0 0 0 0
          0 0 0 0 0 0
          0 0 0 0 0 0
          0 0 0 0 0 0
          0 0 0 0 0 0
          0 0 0 0 0 0
          0 0 0 0 0 0
          0 0 0 0 0 0
          0 0 0 0 0 0
          0 0 0 0 0 0
          0 0 0 0 0 0
          0 0 0 0 0 0
          0 0 0 0 0 0
          0 0 0 0 0 0
          0 0 0 0 0 0
          0 0 0 0 0 0
          0 0 0 0 0 0
          0 0 0 0 0 0
          0 0 0 0 0 0
          0 0 0 0 0 0
          0 0 0 0 0 0
          0 0 0 0 0 0
          0 0 0 0 0 0
          0 0 0 0 0 0
          0 0 0 0 0 0
          0 0 0 0 0 0
          0 0 0 0 0 0
          0 0 0 0 0 0
          0 0 0 0 0 0
          0 0 0 0 0 0
          0 0 0 0 0 0
          0 0 0 0 0 0
          0 0 0 0 0 0
          0 0 0 0 0 0
          0 0 0 0 0 0
          0 0 0 0 0 0
          0 0 0 0 0 0
          0 0 0 0 0 0
          0 0 0 0 0 0
          0 0 0 0 0 0
          0 0 0 0 0 0
          0 0 0 0 0 0
          0 0 0 0 0 0
          0 0 0 0 0 0
          0 0 0 0 0 0
          0 0 0 0 0 0
          0 0 0 0 0 0
          0 0 0 0 0 0
          0 0 0 0 0 0
          0 0 0 0 0 0
          0 0 0 0 0 0
          0 0 0 0 0 0
          0 0 0 0 0 0
          0 0 0 0 0 0
          0 0 0 0 0 0
          0 0 0 0 0 0
          0 0 0 0 0 0
          0 0 0 0 0 0
          0 0 0 0 0 0
          0 0 0 0 0 0
          0 0 0 0 0 0
          0 0 0 0 0 0
          0 0 0 0 0 0
          0 0 0 0 0 0
          0 0 0 0 0 0
          0 0 0 0 0 0
          0 0 0 0 0 0
          0 0 0 0 0 0
          0 0 0 0 0 0
          0 0 0 0 0 0
          0 0 0 0 0 0
          0 0 0 0 0 0
          0 0 0 0 0 0
          0 0 0 0 0 0
          0 0 0 0 0 0
          0 0 0 0 0 0
          0 0 0 0 0 0
          0 0 0 0 0 0
          0 0 0 0 0 0
          0 0 0 0 0 0
          0 0 0 0 0 0
          0 0 0 0 0 0
          0 0 0 0 0 0
          0 0 0 0 0 0
          0 0 0 0 0 0
          0 0 0 0 0 0
          0 0 0 0 0 0
          0 0 0 0 0 0
          0 0 0 0 0 0
          0 0 0 0 0 0
          0 0 0 0 0 0
          0 0 0 0 0 0
          0 0 0 0 0 0
          0 0 0 0 0 0
          0 0 0 0 0 0
          0 0 0 0 0 0
          0 0 0 0 0 0
          0 0 0 0 0 0
          0 0 0 0 0 0
          0 0 0 0 0 0
          0 0 0 0 0 0
          0 0 0 0 0 0
          0 0 0 0 0 0
          0 0 0 0 0 0
          0 0 0 0 0 0
          0 0 0 0 0 0
          0 0 0 0 0 0
          0 0 0 0 0 0
          0 0 0 0 0 0
          0 0 0 0 0 0
          0 0 0 0 0 0
          0 0 0 0 0 0
          0 0 0 0 0 0
          0 0 0 0 0 0
          0 0 0 0 0 0
          0 0 0 0 0 0
          0 0 0 0 0 0
          0 0 0 0 0 0
          0 0 0 0 0 0
          0 0 0 0 0 0
          0 0 0 0 0 0
          0 0 0 0 0 0
          0 0 0 0 0 0
          0 0 0 0 0 0
          0 0 0 0 0 0
          0 0 0 0 0 0
          0 0 0 0 0 0
          0 0 0 0 0 0
          0 0 0 0 0 0
          0 0 0 0 0 0
          0 0 0 0 0 0
          0 0 0 0 0 0
          0 0 0 0 0 0
          0 0 0 0 0 0
          0 0 0 0 0 0
          0 0 0 0 0 0
          0 0 0 0 0 0
          0 0 0 0 0 0
          0 0 0 0 0 0
          0 0 0 0 0 0
          0 0 0 0 0 0
          0 0 0 0 0 0
          0 0 0 0 0 0
          0 0 0 0 0 0
          0 0 0 0 0 0
          0 0 0 0 0 0
          0 0 0 0 0 0
          0 0 0 0 0 0
          0 0 0 0 0 0
          0 0 0 0 0 0
          0 0 0 0 0 0
          0 0 0 0 0 0
          0 0 0 0 0 0
          0 0 0 0 0 0
          0 0 0 0 0 0
          0 0 0 0 0 0
          0 0 0 0 0 0
          0 0 0 0 0 0
          0 0 0 0 0 0
          0 0 0 0 0 0
          0 0 0 0 0 0
          0 0 0 0 0 0
          0 0 0 0 0 0
          0 0 0 0 0 0
          0 0 0 0 0 0
          0 0 0 0 0 0
          0 0 0 0 0 0
          0 0 0 0 0 0
          0 0 0 0 0 0
          0 0 0 0 0 0
          0 0 0 0 0 0
          0 0 0 0 0 0
          0 0 0 0 0 0
          0 0 0 0 0 0
          0 0 0 0 0 0
          0 0 0 0 0 0
          0 0 0 0 0 0
          0 0 0 0 0 0
          0 0 0 0 0 0
          0 0 0 0 0 0
          0 0 0 0 0 0
          0 0 0 0 0 0
          0 0 0 0 0 0
          0 0 0 0 0 0
          0 0 0 0 0 0
          0 0 0 0 0 0
          0 0 0 0 0 0
          0 0 0 0 0 0
          0 0 0 0 0 0
          0 0 0 0 0 0
          0 0 0 0 0 0
          0 0 0 0 0 0
          0 0 0 0 0 0
          0 0 0 0 0 0
          0 0 0 0 0 0
          0 0 0 0 0 0
          0 0 0 0 0 0
          0 0 0 0 0 0
          0 0 0 0 0 0
          0 0 0 0 0 0
          0 0 0 0 0 0
          0 0 0 0 0 0
          0 0 0 0 0 0
          0 0 0 0 0 0
          0 0 0 0 0 0
          0 0 0 0 0 0
          0 0 0 0 0 0
          0 0 0 0 0 0
          0 0 0 0 0 0
          0 0 0 0 0 0
          0 0 0 0 0 0
          0 0 0 0 0 0
          0 0 0 0 0 0
          0 0 0 0 0 0
          0 0 0 0 0 0
          0 0 0 0 0 0
          0 0 0 0 0 0
          0 0 0 0 0 0
          0 0 0 0 0 0
          0 0 0 0 0 0
          0 0 0 0 0 0
          0 0 0 0 0 0
          0 0 0 0 0 0
          0 0 0 0 0 0
          0 0 0 0 0 0
          0 0 0 0 0 0
          0 0 0 0 0 0
          0 0 0 0 0 0
          0 0 0 0 0 0
          0 0 0 0 0 0
          0 0 0 0 0 0
          0 0 0 0 0 0
          0 0 0 0 0 0
          0 0 0 0 0 0
          0 0 0 0 0 0
          0 0 0 0 0 0
          0 0 0 0 0 0
          0 0 0 0 0 0
          0 0 0 0 0 0
          0 0 0 0 0 0
          0 0 0 0 0 0
          0 0 0 0 0 0
          0 0 0 0 0 0
          0 0 0 0 0 0
          0 0 0 0 0 0
          0 0 0 0 0 0
          0 0 0 0 0 0
          0 0 0 0 0 0
          0 0 0 0 0 0
          0 0 0 0 0 0
          0 0 0 0 0 0
          0 0 0 0 0 0
          0 0 0 0 0 0
          0 0 0 0 0 0
          0 0 0 0 0 0
          0 0 0 0 0 0
          0 0 0 0 0 0
          0 0 0 0 0 0
          0 0 0 0 0 0
          0 0 0 0 0 0
          0 0 0 0 0 0
          0 0 0 0 0 0
          0 0 0 0 0 0
          0 0 0 0 0 0
          0 0 0 0 0 0
          0 0 0 0 0 0
          0 0 0 0 0 0
          0 0 0 0 0 0
          0 0 0 0 0 0
          0 0 0 0 0 0
          0 0 0 0 0 0
          0 0 0 0 0 0
          0 0 0 0 0 0
          0 0 0 0 0 0
          0 0 0 0 0 0
          0 0 0 0 0 0
          0 0 0 0 0 0
          0 0 0 0 0 0
          0 0 0 0 0 0
          0 0 0 0 0 0
          0 0 0 0 0 0
          0 0 0 0 0 0
          0 0 0 0 0 0
          0 0 0 0 0 0
          0 0 0 0 0 0
          0 0 0 0 0 0
          0 0 0 0 0 0
          0 0 0 0 0 0
          0 0 0 0 0 0
          0 0 0 0 0 0
          0 0 0 0 0 0
          0 0 0 0 0 0
          0 0 0 0 0 0
          0 0 0 0 0 0
          0 0 0 0 0 0
          0 0 0 0 0 0
          0 0 0 0 0 0
          0 0 0 0 0 0
          0 0 0 0 0 0
          0 0 0 0 0 0
          0 0 0 0 0 0
          0 0 0 0 0 0
          0 0 0 0 0 0
          0 0 0 0 0 0
          0 0 0 0 0 0
          0 0 0 0 0 0
          0 0 0 0 0 0
          0 0 0 0 0 0
          0 0 0 0 0 0
          0 0 0 0 0 0
          0 0 0 0 0 0
          0 0 0 0 0 0
          0 0 0 0 0 0
          0 0 0 0 0 0
          0 0 0 0 0 0
          0 0 0 0 0 0
          0 0 0 0 0 0
          0 0 0 0 0 0
          0 0 0 0 0 0
          0 0 0 0 0 0
          0 0 0 0 0 0
          0 0 0 0 0 0
          0 0 0 0 0 0
          0 0 0 0 0 0
          0 0 0 0 0 0
          0 0 0 0 0 0
          0 0 0 0 0 0
          0 0 0 0 0 0
          0 0 0 0 0 0
          0 0 0 0 0 0
          0 0 0 0 0 0
          0 0 0 0 0 0
          0 0 0 0 0 0
          0 0 0 0 0 0
          0 0 0 0 0 0
          0 0 0 0 0 0
          0 0 0 0 0 0
          0 0 0 0 0 0
          0 0 0 0 0 0
          0 0 0 0 0 0
          0 0 0 0 0 0
          0 0 0 0 0 0
          0 0 0 0 0 0
          0 0 0 0 0 0
          0 0 0 0 0 0
          0 0 0 0 0 0
          0 0 0 0 0 0
          0 0 0 0 0 0
          0 0 0 0 0 0
          0 0 0 0 0 0
          0 0 0 0 0 0
          0 0 0 0 0 0
          0 0 0 0 0 0
          0 0 0 0 0 0
          0 0 0 0 0 0
          0 0 0 0 0 0
          0 0 0 0 0 0
          0 0 0 0 0 0
          0 0 0 0 0 0
          0 0 0 0 0 0
          0 0 0 0 0 0
          0 0 0 0 0 0
          0 0 0 0 0 0
          0 0 0 0 0 0
          0 0 0 0 0 0
          0 0 0 0 0 0
          0 0 0 0 0 0
          0 0 0 0 0 0
          0 0 0 0 0 0
          0 0 0 0 0 0
          0 0 0 0 0 0
          0 0 0 0 0 0
          0 0 0 0 0 0
          0 0 0 0 0 0
          0 0 0 0 0 0
          0 0 0 0 0 0
          0 0 0 0 0 0
          0 0 0 0 0 0
          0 0 0 0 0 0
          0 0 0 0 0 0
          0 0 0 0 0 0
          0 0 0 0 0 0
          0 0 0 0 0 0
          0 0 0 0 0 0
          0 0 0 0 0 0
          0 0 0 0 0 0
          0 0 0 0 0 0
          0 0 0 0 0 0
          0 0 0 0 0 0
          0 0 0 0 0 0
          0 0 0 0 0 0
          0 0 0 0 0 0
          0 0 0 0 0 0
          0 0 0 0 0 0
          0 0 0 0 0 0
          0 0 0 0 0 0
          0 0 0 0 0 0
          0 0 0 0 0 0
          0 0 0 0 0 0
          0 0 0 0 0 0
          0 0 0 0 0 0
          0 0 0 0 0 0
          0 0 0 0 0 0
          0 0 0 0 0 0
          0 0 0 0 0 0
          0 0 0 0 0 0
          0 0 0 0 0 0
          0 0 0 0 0 0
          0 0 0 0 0 0
          0 0 0 0 0 0
          0 0 0 0 0 0
          0 0 0 0 0 0
          0 0 0 0 0 0
          0 0 0 0 0 0
          0 0 0 0 0 0
          0 0 0 0 0 0
          0 0 0 0 0 0
          0 0 0 0 0 0
          0 0 0 0 0 0
          0 0 0 0 0 0
          0 0 0 0 0 0
          0 0 0 0 0 0
          0 0 0 0 0 0
          0 0 0 0 0 0
          0 0 0 0 0 0
          0 0 0 0 0 0
          0 0 0 0 0 0
          0 0 0 0 0 0
          0 0 0 0 0 0
          0 0 0 0 0 0
          0 0 0 0 0 0
          0 0 0 0 0 0
          0 0 0 0 0 0
          0 0 0 0 0 0
          0 0 0 0 0 0
          0 0 0 0 0 0
          0 0 0 0 0 0
          0 0 0 0 0 0
          0 0 0 0 0 0
          0 0 0 0 0 0
          0 0 0 0 0 0
          0 0 0 0 0 0
          0 0 0 0 0 0
          0 0 0 0 0 0
          0 0 0 0 0 0
          0 0 0 0 0 0
          0 0 0 0 0 0
          0 0 0 0 0 0
          0 0 0 0 0 0
          0 0 0 0 0 0
          0 0 0 0 0 0
          0 0 0 0 0 0
          0 0 0 0 0 0
          0 0 0 0 0 0
          0 0 0 0 0 0
          0 0 0 0 0 0
          0 0 0 0 0 0
          0 0 0 0 0 0
          0 0 0 0 0 0
          0 0 0 0 0 0
          0 0 0 0 0 0
          0 0 0 0 0 0
          0 0 0 0 0 0
          0 0 0 0 0 0
          0 0 0 0 0 0
          0 0 0 0 0 0
          0 0 0 0 0 0
          0 0 0 0 0 0
          0 0 0 0 0 0
          0 0 0 0 0 0
          0 0 0 0 0 0
          0 0 0 0 0 0
          0 0 0 0 0 0
          0 0 0 0 0 0
          0 0 0 0 0 0
          0 0 0 0 0 0
          0 0 0 0 0 0
          0 0 0 0 0 0
          0 0 0 0 0 0
          0 0 0 0 0 0
          0 0 0 0 0 0
          0 0 0 0 0 0
          0 0 0 0 0 0
          0 0 0 0 0 0
          0 0 0 0 0 0
          0 0 0 0 0 0
          0 0 0 0 0 0
          0 0 0 0 0 0
          0 0 0 0 0 0
          0 0 0 0 0 0
          0 0 0 0 0 0
          0 0 0 0 0 0
          0 0 0 0 0 0
          0 0 0 0 0 0
          0 0 0 0 0 0
          0 0 0 0 0 0
          0 0 0 0 0 0
          0 0 0 0 0 0
          0 0 0 0 0 0
          0 0 0 0 0 0
          0 0 0 0 0 0
          0 0 0 0 0 0
          0 0 0 0 0 0
          0 0 0 0 0 0
          0 0 0 0 0 0
          0 0 0 0 0 0
          0 0 0 0 0 0
          0 0 0 0 0 0
          0 0 0 0 0 0
          0 0 0 0 0 0
          0 0 0 0 0 0
          0 0 0 0 0 0
          0 0 0 0 0 0
          0 0 0 0 0 0
          0 0 0 0 0 0
          0 0 0 0 0 0
          0 0 0 0 0 0
          0 0 0 0 0 0
          0 0 0 0 0 0
          0 0 0 0 0 0
          0 0 0 0 0 0
          0 0 0 0 0 0
          0 0 0 0 0 0
          0 0 0 0 0 0
          0 0 0 0 0 0
          0 0 0 0 0 0
          0 0 0 0 0 0
          0 0 0 0 0 0
          0 0 0 0 0 0
          0 0 0 0 0 0
          0 0 0 0 0 0
          0 0 0 0 0 0
          0 0 0 0 0 0
          0 0 0 0 0 0
          0 0 0 0 0 0
          0 0 0 0 0 0
          0 0 0 0 0 0
          0 0 0 0 0 0
          0 0 0 0 0 0
          0 0 0 0 0 0
          0 0 0 0 0 0
          0 0 0 0 0 0
          0 0 0 0 0 0
          0 0 0 0 0 0
          0 0 0 0 0 0
          0 0 0 0 0 0
          0 0 0 0 0 0
          0 0 0 0 0 0
          0 0 0 0 0 0
          0 0 0 0 0 0
          0 0 0 0 0 0
          0 0 0 0 0 0
          0 0 0 0 0 0
          0 0 0 0 0 0
          0 0 0 0 0 0
          0 0 0 0 0 0
          0 0 0 0 0 0
          0 0 0 0 0 0
          0 0 0 0 0 0
          0 0 0 0 0 0
          0 0 0 0 0 0
          0 0 0 0 0 0
          0 0 0 0 0 0
          0 0 0 0 0 0
          0 0 0 0 0 0
          0 0 0 0 0 0
          0 0 0 0 0 0
          0 0 0 0 0 0
          0 0 0 0 0 0
          0 0 0 0 0 0
          0 0 0 0 0 0
          0 0 0 0 0 0
          0 0 0 0 0 0
          0 0 0 0 0 0
          0 0 0 0 0 0
          0 0 0 0 0 0
          0 0 0 0 0 0
          0 0 0 0 0 0
          0 0 0 0 0 0
          0 0 0 0 0 0
          0 0 0 0 0 0
          0 0 0 0 0 0
          0 0 0 0 0 0
          0 0 0 0 0 0
          0 0 0 0 0 0
          0 0 0 0 0 0
          0 0 0 0 0 0
          0 0 0 0 0 0
          0 0 0 0 0 0
          0 0 0 0 0 0
          0 0 0 0 0 0
          0 0 0 0 0 0
          0 0 0 0 0 0
          0 0 0 0 0 0
          0 0 0 0 0 0
          0 0 0 0 0 0
          0 0 0 0 0 0
          0 0 0 0 0 0
          0 0 0 0 0 0
          0 0 0 0 0 0
          0 0 0 0 0 0
          0 0 0 0 0 0
          0 0 0 0 0 0
          0 0 0 0 0 0
          0 0 0 0 0 0
          0 0 0 0 0 0
          0 0 0 0 0 0
          0 0 0 0 0 0
          0 0 0 0 0 0
          0 0 0 0 0 0
          0 0 0 0 0 0
          0 0 0 0 0 0
          0 0 0 0 0 0
          0 0 0 0 0 0
          0 0 0 0 0 0
          0 0 0 0 0 0
          0 0 0 0 0 0
          0 0 0 0 0 0
          0 0 0 0 0 0
          0 0 0 0 0 0
          0 0 0 0 0 0
          0 0 0 0 0 0
          0 0 0 0 0 0
          0 0 0 0 0 0
          0 0 0 0 0 0
          0 0 0 0 0 0
          0 0 0 0 0 0
          0 0 0 0 0 0
          0 0 0 0 0 0
          0 0 0 0 0 0
          0 0 0 0 0 0
          0 0 0 0 0 0
          0 0 0 0 0 0
          0 0 0 0 0 0
          0 0 0 0 0 0
          0 0 0 0 0 0
          0 0 0 0 0 0
          0 0 0 0 0 0
          0 0 0 0 0 0
          0 0 0 0 0 0
          0 0 0 0 0 0
          0 0 0 0 0 0
          0 0 0 0 0 0
          0 0 0 0 0 0
          0 0 0 0 0 0
          0 0 0 0 0 0
          0 0 0 0 0 0
          0 0 0 0 0 0
          0 0 0 0 0 0
          0 0 0 0 0 0
          0 0 0 0 0 0
          0 0 0 0 0 0
          0 0 0 0 0 0
          0 0 0 0 0 0
          0 0 0 0 0 0
          0 0 0 0 0 0
          0 0 0 0 0 0
          0 0 0 0 0 0
          0 0 0 0 0 0
          0 0 0 0 0 0
          0 0 0 0 0 0
          0 0 0 0 0 0
          0 0 0 0 0 0
          0 0 0 0 0 0
          0 0 0 0 0 0
          0 0 0 0 0 0
          0 0 0 0 0 0
          0 0 0 0 0 0
          0 0 0 0 0 0
          0 0 0 0 0 0
          0 0 0 0 0 0
          0 0 0 0 0 0
          0 0 0 0 0 0
          0 0 0 0 0 0
          0 0 0 0 0 0
          0 0 0 0 0 0
          0 0 0 0 0 0
          0 0 0 0 0 0
          0 0 0 0 0 0
          0 0 0 0 0 0
          0 0 0 0 0 0
          0 0 0 0 0 0
          0 0 0 0 0 0
          0 0 0 0 0 0
          0 0 0 0 0 0
          0 0 0 0 0 0
          0 0 0 0 0 0
          0 0 0 0 0 0
          0 0 0 0 0 0
          0 0 0 0 0 0
          0 0 0 0 0 0
          0 0 0 0 0 0
          0 0 0 0 0 0
          0 0 0 0 0 0
          0 0 0 0 0 0
          0 0 0 0 0 0
          0 0 0 0 0 0
          0 0 0 0 0 0
          0 0 0 0 0 0
          0 0 0 0 0 0
          0 0 0 0 0 0
          0 0 0 0 0 0
          0 0 0 0 0 0
          0 0 0 0 0 0
          0 0 0 0 0 0
          0 0 0 0 0 0
          0 0 0 0 0 0
          0 0 0 0 0 0
          0 0 0 0 0 0
          0 0 0 0 0 0
          0 0 0 0 0 0
          0 0 0 0 0 0
          0 0 0 0 0 0
          0 0 0 0 0 0
          0 0 0 0 0 0
          0 0 0 0 0 0
          0 0 0 0 0 0
          0 0 0 0 0 0
          0 0 0 0 0 0
          0 0 0 0 0 0
          0 0 0 0 0 0
          0 0 0 0 0 0
          0 0 0 0 0 0
          0 0 0 0 0 0
          0 0 0 0 0 0
          0 0 0 0 0 0
          0 0 0 0 0 0
          0 0 0 0 0 0
          0 0 0 0 0 0
          0 0 0 0 0 0
          0 0 0 0 0 0
          0 0 0 0 0 0
          0 0 0 0 0 0
          0 0 0 0 0 0
          0 0 0 0 0 0
          0 0 0 0 0 0
          0 0 0 0 0 0
          0 0 0 0 0 0
          0 0 0 0 0 0
          0 0 0 0 0 0
          0 0 0 0 0 0
          0 0 0 0 0 0
          0 0 0 0 0 0
          0 0 0 0 0 0
          0 0 0 0 0 0
          0 0 0 0 0 0
          0 0 0 0 0 0
          0 0 0 0 0 0
          0 0 0 0 0 0
          0 0 0 0 0 0
          0 0 0 0 0 0
          0 0 0 0 0 0
          0 0 0 0 0 0
          0 0 0 0 0 0
          0 0 0 0 0 0
          0 0 0 0 0 0
          0 0 0 0 0 0
          0 0 0 0 0 0
          0 0 0 0 0 0
          0 0 0 0 0 0
          0 0 0 0 0 0
          0 0 0 0 0 0
          0 0 0 0 0 0
          0 0 0 0 0 0
          0 0 0 0 0 0
          0 0 0 0 0 0
          0 0 0 0 0 0
          0 0 0 0 0 0
          0 0 0 0 0 0
          0 0 0 0 0 0
          0 0 0 0 0 0
          0 0 0 0 0 0
          0 0 0 0 0 0
          0 0 0 0 0 0
          0 0 0 0 0 0
          0 0 0 0 0 0
          0 0 0 0 0 0
          0 0 0 0 0 0
          0 0 0 0 0 0
          0 0 0 0 0 0
          0 0 0 0 0 0
          0 0 0 0 0 0
          0 0 0 0 0 0
          0 0 0 0 0 0
          0 0 0 0 0 0
          0 0 0 0 0 0
          0 0 0 0 0 0
          0 0 0 0 0 0
          0 0 0 0 0 0
          0 0 0 0 0 0
          0 0 0 0 0 0
          0 0 0 0 0 0
          0 0 0 0 0 0
          0 0 0 0 0 0
          0 0 0 0 0 0
          0 0 0 0 0 0
          0 0 0 0 0 0
          0 0 0 0 0 0
          0 0 0 0 0 0
          0 0 0 0 0 0
          0 0 0 0 0 0
          0 0 0 0 0 0
          0 0 0 0 0 0
          0 0 0 0 0 0
          0 0 0 0 0 0
          0 0 0 0 0 0
          0 0 0 0 0 0
          0 0 0 0 0 0
          0 0 0 0 0 0
          0 0 0 0 0 0
          0 0 0 0 0 0
          0 0 0 0 0 0
          0 0 0 0 0 0
          0 0 0 0 0 0
          0 0 0 0 0 0
          0 0 0 0 0 0
          0 0 0 0 0 0
          0 0 0 0 0 0
          0 0 0 0 0 0
          0 0 0 0 0 0
          0 0 0 0 0 0
          0 0 0 0 0 0
          0 0 0 0 0 0
          0 0 0 0 0 0
          0 0 0 0 0 0
          0 0 0 0 0 0
          0 0 0 0 0 0
          0 0 0 0 0 0
          0 0 0 0 0 0
          0 0 0 0 0 0
          0 0 0 0 0 0
          0 0 0 0 0 0
          0 0 0 0 0 0
          0 0 0 0 0 0
          0 0 0 0 0 0
          0 0 0 0 0 0
          0 0 0 0 0 0
          0 0 0 0 0 0
          0 0 0 0 0 0
          0 0 0 0 0 0
          0 0 0 0 0 0
          0 0 0 0 0 0
          0 0 0 0 0 0
          0 0 0 0 0 0
          0 0 0 0 0 0
          0 0 0 0 0 0
          0 0 0 0 0 0
          0 0 0 0 0 0
          0 0 0 0 0 0
          0 0 0 0 0 0
          0 0 0 0 0 0
          0 0 0 0 0 0
          0 0 0 0 0 0
          0 0 0 0 0 0
          0 0 0 0 0 0
          0 0 0 0 0 0
          0 0 0 0 0 0
          0 0 0 0 0 0
          0 0 0 0 0 0
          0 0 0 0 0 0
          0 0 0 0 0 0
          0 0 0 0 0 0
          0 0 0 0 0 0
          0 0 0 0 0 0
          0 0 0 0 0 0
          0 0 0 0 0 0
          0 0 0 0 0 0
          0 0 0 0 0 0
          0 0 0 0 0 0
          0 0 0 0 0 0
          0 0 0 0 0 0
          0 0 0 0 0 0
          0 0 0 0 0 0
          0 0 0 0 0 0
          0 0 0 0 0 0
          0 0 0 0 0 0
          0 0 0 0 0 0
          0 0 0 0 0 0
          0 0 0 0 0 0
          0 0 0 0 0 0
          0 0 0 0 0 0
          0 0 0 0 0 0
          0 0 0 0 0 0
          0 0 0 0 0 0
          0 0 0 0 0 0
          0 0 0 0 0 0
          0 0 0 0 0 0
          0 0 0 0 0 0
          0 0 0 0 0 0
          0 0 0 0 0 0
          0 0 0 0 0 0
          0 0 0 0 0 0
          0 0 0 0 0 0
          0 0 0 0 0 0
          0 0 0 0 0 0
          0 0 0 0 0 0
          0 0 0 0 0 0
          0 0 0 0 0 0
          0 0 0 0 0 0
          0 0 0 0 0 0
          0 0 0 0 0 0
          0 0 0 0 0 0
          0 0 0 0 0 0
          0 0 0 0 0 0
          0 0 0 0 0 0
          0 0 0 0 0 0
          0 0 0 0 0 0
          0 0 0 0 0 0
          0 0 0 0 0 0
          0 0 0 0 0 0
          0 0 0 0 0 0
          0 0 0 0 0 0
          0 0 0 0 0 0
          0 0 0 0 0 0
          0 0 0 0 0 0
          0 0 0 0 0 0
          0 0 0 0 0 0
          0 0 0 0 0 0
          0 0 0 0 0 0
          0 0 0 0 0 0
          0 0 0 0 0 0
          0 0 0 0 0 0
          0 0 0 0 0 0
          0 0 0 0 0 0
          0 0 0 0 0 0
          0 0 0 0 0 0
          0 0 0 0 0 0
          0 0 0 0 0 0
          0 0 0 0 0 0
          0 0 0 0 0 0
          0 0 0 0 0 0
          0 0 0 0 0 0
          0 0 0 0 0 0
          0 0 0 0 0 0
          0 0 0 0 0 0
          0 0 0 0 0 0
          0 0 0 0 0 0
          0 0 0 0 0 0
          0 0 0 0 0 0
          0 0 0 0 0 0
          0 0 0 0 0 0
          0 0 0 0 0 0
          0 0 0 0 0 0
          0 0 0 0 0 0
          0 0 0 0 0 0
          0 0 0 0 0 0
          0 0 0 0 0 0
          0 0 0 0 0 0
          0 0 0 0 0 0
          0 0 0 0 0 0
          0 0 0 0 0 0
          0 0 0 0 0 0
          0 0 0 0 0 0
          0 0 0 0 0 0
          0 0 0 0 0 0
          0 0 0 0 0 0
          0 0 0 0 0 0
          0 0 0 0 0 0
          0 0 0 0 0 0
          0 0 0 0 0 0
          0 0 0 0 0 0
          0 0 0 0 0 0
          0 0 0 0 0 0
          0 0 0 0 0 0
          0 0 0 0 0 0
          0 0 0 0 0 0
          0 0 0 0 0 0
          0 0 0 0 0 0
          0 0 0 0 0 0
          0 0 0 0 0 0
          0 0 0 0 0 0
          0 0 0 0 0 0
          0 0 0 0 0 0
          0 0 0 0 0 0
          0 0 0 0 0 0
          0 0 0 0 0 0
          0 0 0 0 0 0
          0 0 0 0 0 0
          0 0 0 0 0 0
          0 0 0 0 0 0
          0 0 0 0 0 0
          0 0 0 0 0 0
          0 0 0 0 0 0
          0 0 0 0 0 0
          0 0 0 0 0 0
          0 0 0 0 0 0
          0 0 0 0 0 0
          0 0 0 0 0 0
          0 0 0 0 0 0
          0 0 0 0 0 0
          0 0 0 0 0 0
          0 0 0 0 0 0
          0 0 0 0 0 0
          0 0 0 0 0 0
          0 0 0 0 0 0
          0 0 0 0 0 0
          0 0 0 0 0 0
          0 0 0 0 0 0
          0 0 0 0 0 0
          0 0 0 0 0 0
          0 0 0 0 0 0
          0 0 0 0 0 0
          0 0 0 0 0 0
          0 0 0 0 0 0
          0 0 0 0 0 0
          0 0 0 0 0 0
          0 0 0 0 0 0
          0 0 0 0 0 0
          0 0 0 0 0 0
          0 0 0 0 0 0
          0 0 0 0 0 0
          0 0 0 0 0 0
          0 0 0 0 0 0
          0 0 0 0 0 0
          0 0 0 0 0 0
          0 0 0 0 0 0
          0 0 0 0 0 0
          0 0 0 0 0 0
          0 0 0 0 0 0
          0 0 0 0 0 0
          0 0 0 0 0 0
          0 0 0 0 0 0
          0 0 0 0 0 0
          0 0 0 0 0 0
          0 0 0 0 0 0
          0 0 0 0 0 0
          0 0 0 0 0 0
          0 0 0 0 0 0
          0 0 0 0 0 0
          0 0 0 0 0 0
          0 0 0 0 0 0
          0 0 0 0 0 0
          0 0 0 0 0 0
          0 0 0 0 0 0
          0 0 0 0 0 0
          0 0 0 0 0 0
          0 0 0 0 0 0
          0 0 0 0 0 0
          0 0 0 0 0 0
          0 0 0 0 0 0
          0 0 0 0 0 0
          0 0 0 0 0 0
          0 0 0 0 0 0
          0 0 0 0 0 0
          0 0 0 0 0 0
          0 0 0 0 0 0
          0 0 0 0 0 0
          0 0 0 0 0 0
          0 0 0 0 0 0
          0 0 0 0 0 0
          0 0 0 0 0 0
          0 0 0 0 0 0
          0 0 0 0 0 0
          0 0 0 0 0 0
          0 0 0 0 0 0
          0 0 0 0 0 0
          0 0 0 0 0 0
          0 0 0 0 0 0
          0 0 0 0 0 0
          0 0 0 0 0 0
          0 0 0 0 0 0
          0 0 0 0 0 0
          0 0 0 0 0 0
          0 0 0 0 0 0
          0 0 0 0 0 0
          0 0 0 0 0 0
          0 0 0 0 0 0
          0 0 0 0 0 0
          0 0 0 0 0 0
          0 0 0 0 0 0
          0 0 0 0 0 0
          0 0 0 0 0 0
          0 0 0 0 0 0
          0 0 0 0 0 0
          0 0 0 0 0 0
          0 0 0 0 0 0
          0 0 0 0 0 0
          0 0 0 0 0 0
          0 0 0 0 0 0
          0 0 0 0 0 0
          0 0 0 0 0 0
          0 0 0 0 0 0
          0 0 0 0 0 0
          0 0 0 0 0 0
          0 0 0 0 0 0
          0 0 0 0 0 0
          0 0 0 0 0 0
          0 0 0 0 0 0
          0 0 0 0 0 0
          0 0 0 0 0 0
          0 0 0 0 0 0
          0 0 0 0 0 0
          0 0 0 0 0 0
          0 0 0 0 0 0
          0 0 0 0 0 0
          0 0 0 0 0 0
          0 0 0 0 0 0
          0 0 0 0 0 0
          0 0 0 0 0 0
          0 0 0 0 0 0
          0 0 0 0 0 0
          0 0 0 0 0 0
          0 0 0 0 0 0
          0 0 0 0 0 0
          0 0 0 0 0 0
          0 0 0 0 0 0
          0 0 0 0 0 0
          0 0 0 0 0 0
          0 0 0 0 0 0
          0 0 0 0 0 0
          0 0 0 0 0 0
          0 0 0 0 0 0
          0 0 0 0 0 0
          0 0 0 0 0 0
          0 0 0 0 0 0
          0 0 0 0 0 0
          0 0 0 0 0 0
          0 0 0 0 0 0
          0 0 0 0 0 0
          0 0 0 0 0 0
          0 0 0 0 0 0
          0 0 0 0 0 0
          0 0 0 0 0 0
          0 0 0 0 0 0
          0 0 0 0 0 0
          0 0 0 0 0 0
          0 0 0 0 0 0
          0 0 0 0 0 0
          0 0 0 0 0 0
          0 0 0 0 0 0
          0 0 0 0 0 0
          0 0 0 0 0 0
          0 0 0 0 0 0
          0 0 0 0 0 0
          0 0 0 0 0 0
          0 0 0 0 0 0
          0 0 0 0 0 0
          0 0 0 0 0 0
          0 0 0 0 0 0
          0 0 0 0 0 0
          0 0 0 0 0 0
          0 0 0 0 0 0
          0 0 0 0 0 0
          0 0 0 0 0 0
          0 0 0 0 0 0
          0 0 0 0 0 0
          0 0 0 0 0 0
          0 0 0 0 0 0
          0 0 0 0 0 0
          0 0 0 0 0 0
          0 0 0 0 0 0
          0 0 0 0 0 0
          0 0 0 0 0 0
          0 0 0 0 0 0
          0 0 0 0 0 0
          0 0 0 0 0 0
          0 0 0 0 0 0
          0 0 0 0 0 0
          0 0 0 0 0 0
          0 0 0 0 0 0
          0 0 0 0 0 0
          0 0 0 0 0 0
          0 0 0 0 0 0
          0 0 0 0 0 0
          0 0 0 0 0 0
          0 0 0 0 0 0
          0 0 0 0 0 0
          0 0 0 0 0 0
          0 0 0 0 0 0
          0 0 0 0 0 0
          0 0 0 0 0 0
          0 0 0 0 0 0
          0 0 0 0 0 0
          0 0 0 0 0 0
          0 0 0 0 0 0
          0 0 0 0 0 0
          0 0 0 0 0 0
          0 0 0 0 0 0
          0 0 0 0 0 0
          0 0 0 0 0 0
          0 0 0 0 0 0
          0 0 0 0 0 0
          0 0 0 0 0 0
          0 0 0 0 0 0
          0 0 0 0 0 0
          0 0 0 0 0 0
          0 0 0 0 0 0
          0 0 0 0 0 0
          0 0 0 0 0 0
          0 0 0 0 0 0
          0 0 0 0 0 0
          0 0 0 0 0 0
          0 0 0 0 0 0
          0 0 0 0 0 0
          0 0 0 0 0 0
          0 0 0 0 0 0
          0 0 0 0 0 0
          0 0 0 0 0 0
          0 0 0 0 0 0
          0 0 0 0 0 0
          0 0 0 0 0 0
          0 0 0 0 0 0
          0 0 0 0 0 0
          0 0 0 0 0 0
          0 0 0 0 0 0
          0 0 0 0 0 0
          0 0 0 0 0 0
          0 0 0 0 0 0
          0 0 0 0 0 0
          0 0 0 0 0 0
          0 0 0 0 0 0
          0 0 0 0 0 0
          0 0 0 0 0 0
          0 0 0 0 0 0
          0 0 0 0 0 0
          0 0 0 0 0 0
          0 0 0 0 0 0
          0 0 0 0 0 0
          0 0 0 0 0 0
          0 0 0 0 0 0
          0 0 0 0 0 0
          0 0 0 0 0 0
          0 0 0 0 0 0
          0 0 0 0 0 0
          0 0 0 0 0 0
          0 0 0 0 0 0
          0 0 0 0 0 0
          0 0 0 0 0 0
          0 0 0 0 0 0
          0 0 0 0 0 0
          0 0 0 0 0 0
          0 0 0 0 0 0
          0 0 0 0 0 0
          0 0 0 0 0 0
          0 0 0 0 0 0
          0 0 0 0 0 0
          0 0 0 0 0 0
          0 0 0 0 0 0
          0 0 0 0 0 0
          0 0 0 0 0 0
          0 0 0 0 0 0
          0 0 0 0 0 0
          0 0 0 0 0 0
          0 0 0 0 0 0
          0 0 0 0 0 0
          0 0 0 0 0 0
          0 0 0 0 0 0
          0 0 0 0 0 0
          0 0 0 0 0 0
          0 0 0 0 0 0
          0 0 0 0 0 0
          0 0 0 0 0 0
          0 0 0 0 0 0
          0 0 0 0 0 0
          0 0 0 0 0 0
          0 0 0 0 0 0
          0 0 0 0 0 0
          0 0 0 0 0 0
          0 0 0 0 0 0
          0 0 0 0 0 0
          0 0 0 0 0 0
          0 0 0 0 0 0
          0 0 0 0 0 0
          0 0 0 0 0 0
          0 0 0 0 0 0
          0 0 0 0 0 0
          0 0 0 0 0 0
          0 0 0 0 0 0
          0 0 0 0 0 0
          0 0 0 0 0 0
          0 0 0 0 0 0
          0 0 0 0 0 0
          0 0 0 0 0 0
          0 0 0 0 0 0
          0 0 0 0 0 0
          0 0 0 0 0 0
          0 0 0 0 0 0
          0 0 0 0 0 0
          0 0 0 0 0 0
          0 0 0 0 0 0
          0 0 0 0 0 0
          0 0 0 0 0 0
          0 0 0 0 0 0
          0 0 0 0 0 0
          0 0 0 0 0 0
          0 0 0 0 0 0
          0 0 0 0 0 0
          0 0 0 0 0 0
          0 0 0 0 0 0
          0 0 0 0 0 0
          0 0 0 0 0 0
          0 0 0 0 0 0
          0 0 0 0 0 0
          0 0 0 0 0 0
          0 0 0 0 0 0
          0 0 0 0 0 0
          0 0 0 0 0 0
          0 0 0 0 0 0
          0 0 0 0 0 0
          0 0 0 0 0 0
          0 0 0 0 0 0
          0 0 0 0 0 0
          0 0 0 0 0 0
          0 0 0 0 0 0
          0 0 0 0 0 0
          0 0 0 0 0 0
          0 0 0 0 0 0
          0 0 0 0 0 0
          0 0 0 0 0 0
          0 0 0 0 0 0
          0 0 0 0 0 0
          0 0 0 0 0 0
          0 0 0 0 0 0
          0 0 0 0 0 0
          0 0 0 0 0 0
          0 0 0 0 0 0
          0 0 0 0 0 0
          0 0 0 0 0 0
          0 0 0 0 0 0
          0 0 0 0 0 0
          0 0 0 0 0 0
          0 0 0 0 0 0
          0 0 0 0 0 0
          0 0 0 0 0 0
          0 0 0 0 0 0
          0 0 0 0 0 0
          0 0 0 0 0 0
          0 0 0 0 0 0
          0 0 0 0 0 0
          0 0 0 0 0 0
          0 0 0 0 0 0
          0 0 0 0 0 0
          0 0 0 0 0 0
          0 0 0 0 0 0
          0 0 0 0 0 0
          0 0 0 0 0 0
          0 0 0 0 0 0
          0 0 0 0 0 0
          0 0 0 0 0 0
          0 0 0 0 0 0
          0 0 0 0 0 0
          0 0 0 0 0 0
          0 0 0 0 0 0
          0 0 0 0 0 0
          0 0 0 0 0 0
          0 0 0 0 0 0
          0 0 0 0 0 0
          0 0 0 0 0 0
          0 0 0 0 0 0
          0 0 0 0 0 0
          0 0 0 0 0 0
          0 0 0 0 0 0
          0 0 0 0 0 0
          0 0 0 0 0 0
          0 0 0 0 0 0
          0 0 0 0 0 0
          0 0 0 0 0 0
          0 0 0 0 0 0
          0 0 0 0 0 0
          0 0 0 0 0 0
          0 0 0 0 0 0
          0 0 0 0 0 0
          0 0 0 0 0 0
          0 0 0 0 0 0
          0 0 0 0 0 0
          0 0 0 0 0 0
          0 0 0 0 0 0
          0 0 0 0 0 0
          0 0 0 0 0 0
          0 0 0 0 0 0
          0 0 0 0 0 0
          0 0 0 0 0 0
          0 0 0 0 0 0
          0 0 0 0 0 0
          0 0 0 0 0 0
          0 0 0 0 0 0
          0 0 0 0 0 0
          0 0 0 0 0 0
          0 0 0 0 0 0
          0 0 0 0 0 0
          0 0 0 0 0 0
          0 0 0 0 0 0
          0 0 0 0 0 0
          0 0 0 0 0 0
          0 0 0 0 0 0
          0 0 0 0 0 0
          0 0 0 0 0 0
          0 0 0 0 0 0
          0 0 0 0 0 0
          0 0 0 0 0 0
          0 0 0 0 0 0
          0 0 0 0 0 0
          0 0 0 0 0 0
          0 0 0 0 0 0
          0 0 0 0 0 0
          0 0 0 0 0 0
          0 0 0 0 0 0
          0 0 0 0 0 0
          0 0 0 0 0 0
          0 0 0 0 0 0
          0 0 0 0 0 0
          0 0 0 0 0 0
          0 0 0 0 0 0
          0 0 0 0 0 0
          0 0 0 0 0 0
          0 0 0 0 0 0
          0 0 0 0 0 0
          0 0 0 0 0 0
          0 0 0 0 0 0
          0 0 0 0 0 0
          0 0 0 0 0 0
          0 0 0 0 0 0
          0 0 0 0 0 0
          0 0 0 0 0 0
          0 0 0 0 0 0
          0 0 0 0 0 0
          0 0 0 0 0 0
          0 0 0 0 0 0
          0 0 0 0 0 0
          0 0 0 0 0 0
          0 0 0 0 0 0
          0 0 0 0 0 0
          0 0 0 0 0 0
          0 0 0 0 0 0
          0 0 0 0 0 0
          0 0 0 0 0 0
          0 0 0 0 0 0
          0 0 0 0 0 0
          0 0 0 0 0 0
          0 0 0 0 0 0
          0 0 0 0 0 0
          0 0 0 0 0 0
          0 0 0 0 0 0
          0 0 0 0 0 0
          0 0 0 0 0 0
          0 0 0 0 0 0
          0 0 0 0 0 0
          0 0 0 0 0 0
          0 0 0 0 0 0
          0 0 0 0 0 0
          0 0 0 0 0 0
          0 0 0 0 0 0
          0 0 0 0 0 0
          0 0 0 0 0 0
          0 0 0 0 0 0
          0 0 0 0 0 0
          0 0 0 0 0 0
          0 0 0 0 0 0
          0 0 0 0 0 0
          0 0 0 0 0 0
          0 0 0 0 0 0
          0 0 0 0 0 0
          0 0 0 0 0 0
          0 0 0 0 0 0
          0 0 0 0 0 0
          0 0 0 0 0 0
          0 0 0 0 0 0
          0 0 0 0 0 0
          0 0 0 0 0 0
          0 0 0 0 0 0
          0 0 0 0 0 0
          0 0 0 0 0 0
          0 0 0 0 0 0
          0 0 0 0 0 0
          0 0 0 0 0 0
          0 0 0 0 0 0
          0 0 0 0 0 0
          0 0 0 0 0 0
          0 0 0 0 0 0
          0 0 0 0 0 0
          0 0 0 0 0 0
          0 0 0 0 0 0
          0 0 0 0 0 0
          0 0 0 0 0 0
          0 0 0 0 0 0
          0 0 0 0 0 0
          0 0 0 0 0 0
          0 0 0 0 0 0
          0 0 0 0 0 0
          0 0 0 0 0 0
          0 0 0 0 0 0
          0 0 0 0 0 0
          0 0 0 0 0 0
          0 0 0 0 0 0
          0 0 0 0 0 0
          0 0 0 0 0 0
          0 0 0 0 0 0
          0 0 0 0 0 0
          0 0 0 0 0 0
          0 0 0 0 0 0
          0 0 0 0 0 0
          0 0 0 0 0 0
          0 0 0 0 0 0
          0 0 0 0 0 0
          0 0 0 0 0 0
          0 0 0 0 0 0
          0 0 0 0 0 0
          0 0 0 0 0 0
          0 0 0 0 0 0
          0 0 0 0 0 0
          0 0 0 0 0 0
          0 0 0 0 0 0
          0 0 0 0 0 0
          0 0 0 0 0 0
          0 0 0 0 0 0
          0 0 0 0 0 0
          0 0 0 0 0 0
          0 0 0 0 0 0
          0 0 0 0 0 0
          0 0 0 0 0 0
          0 0 0 0 0 0
          0 0 0 0
        </DataArray>
        <DataArray type="Float64" Name="u0" format="ascii" RangeMin="0" RangeMax="0">
          0 0 0 0 0 0
          0 0 0 0 0 0
          0 0 0 0 0 0
          0 0 0 0 0 0
          0 0 0 0 0 0
          0 0 0 0 0 0
          0 0 0 0 0 0
          0 0 0 0 0 0
          0 0 0 0 0 0
          0 0 0 0 0 0
          0 0 0 0 0 0
          0 0 0 0 0 0
          0 0 0 0 0 0
          0 0 0 0 0 0
          0 0 0 0 0 0
          0 0 0 0 0 0
          0 0 0 0 0 0
          0 0 0 0 0 0
          0 0 0 0 0 0
          0 0 0 0 0 0
          0 0 0 0 0 0
          0 0 0 0 0 0
          0 0 0 0 0 0
          0 0 0 0 0 0
          0 0 0 0 0 0
          0 0 0 0 0 0
          0 0 0 0 0 0
          0 0 0 0 0 0
          0 0 0 0 0 0
          0 0 0 0 0 0
          0 0 0 0 0 0
          0 0 0 0 0 0
          0 0 0 0 0 0
          0 0 0 0 0 0
          0 0 0 0 0 0
          0 0 0 0 0 0
          0 0 0 0 0 0
          0 0 0 0 0 0
          0 0 0 0 0 0
          0 0 0 0 0 0
          0 0 0 0 0 0
          0 0 0 0 0 0
          0 0 0 0 0 0
          0 0 0 0 0 0
          0 0 0 0 0 0
          0 0 0 0 0 0
          0 0 0 0 0 0
          0 0 0 0 0 0
          0 0 0 0 0 0
          0 0 0 0 0 0
          0 0 0 0 0 0
          0 0 0 0 0 0
          0 0 0 0 0 0
          0 0 0 0 0 0
          0 0 0 0 0 0
          0 0 0 0 0 0
          0 0 0 0 0 0
          0 0 0 0 0 0
          0 0 0 0 0 0
          0 0 0 0 0 0
          0 0 0 0 0 0
          0 0 0 0 0 0
          0 0 0 0 0 0
          0 0 0 0 0 0
          0 0 0 0 0 0
          0 0 0 0 0 0
          0 0 0 0 0 0
          0 0 0 0 0 0
          0 0 0 0 0 0
          0 0 0 0 0 0
          0 0 0 0 0 0
          0 0 0 0 0 0
          0 0 0 0 0 0
          0 0 0 0 0 0
          0 0 0 0 0 0
          0 0 0 0 0 0
          0 0 0 0 0 0
          0 0 0 0 0 0
          0 0 0 0 0 0
          0 0 0 0 0 0
          0 0 0 0 0 0
          0 0 0 0 0 0
          0 0 0 0 0 0
          0 0 0 0 0 0
          0 0 0 0 0 0
          0 0 0 0 0 0
          0 0 0 0 0 0
          0 0 0 0 0 0
          0 0 0 0 0 0
          0 0 0 0 0 0
          0 0 0 0 0 0
          0 0 0 0 0 0
          0 0 0 0 0 0
          0 0 0 0 0 0
          0 0 0 0 0 0
          0 0 0 0 0 0
          0 0 0 0 0 0
          0 0 0 0 0 0
          0 0 0 0 0 0
          0 0 0 0 0 0
          0 0 0 0 0 0
          0 0 0 0 0 0
          0 0 0 0 0 0
          0 0 0 0 0 0
          0 0 0 0 0 0
          0 0 0 0 0 0
          0 0 0 0 0 0
          0 0 0 0 0 0
          0 0 0 0 0 0
          0 0 0 0 0 0
          0 0 0 0 0 0
          0 0 0 0 0 0
          0 0 0 0 0 0
          0 0 0 0 0 0
          0 0 0 0 0 0
          0 0 0 0 0 0
          0 0 0 0 0 0
          0 0 0 0 0 0
          0 0 0 0 0 0
          0 0 0 0 0 0
          0 0 0 0 0 0
          0 0 0 0 0 0
          0 0 0 0 0 0
          0 0 0 0 0 0
          0 0 0 0 0 0
          0 0 0 0 0 0
          0 0 0 0 0 0
          0 0 0 0 0 0
          0 0 0 0 0 0
          0 0 0 0 0 0
          0 0 0 0 0 0
          0 0 0 0 0 0
          0 0 0 0 0 0
          0 0 0 0 0 0
          0 0 0 0 0 0
          0 0 0 0 0 0
          0 0 0 0 0 0
          0 0 0 0 0 0
          0 0 0 0 0 0
          0 0 0 0 0 0
          0 0 0 0 0 0
          0 0 0 0 0 0
          0 0 0 0 0 0
          0 0 0 0 0 0
          0 0 0 0 0 0
          0 0 0 0 0 0
          0 0 0 0 0 0
          0 0 0 0 0 0
          0 0 0 0 0 0
          0 0 0 0 0 0
          0 0 0 0 0 0
          0 0 0 0 0 0
          0 0 0 0 0 0
          0 0 0 0 0 0
          0 0 0 0 0 0
          0 0 0 0 0 0
          0 0 0 0 0 0
          0 0 0 0 0 0
          0 0 0 0 0 0
          0 0 0 0 0 0
          0 0 0 0 0 0
          0 0 0 0 0 0
          0 0 0 0 0 0
          0 0 0 0 0 0
          0 0 0 0 0 0
          0 0 0 0 0 0
          0 0 0 0 0 0
          0 0 0 0 0 0
          0 0 0 0 0 0
          0 0 0 0 0 0
          0 0 0 0 0 0
          0 0 0 0 0 0
          0 0 0 0 0 0
          0 0 0 0 0 0
          0 0 0 0 0 0
          0 0 0 0 0 0
          0 0 0 0 0 0
          0 0 0 0 0 0
          0 0 0 0 0 0
          0 0 0 0 0 0
          0 0 0 0 0 0
          0 0 0 0 0 0
          0 0 0 0 0 0
          0 0 0 0 0 0
          0 0 0 0 0 0
          0 0 0 0 0 0
          0 0 0 0 0 0
          0 0 0 0 0 0
          0 0 0 0 0 0
          0 0 0 0 0 0
          0 0 0 0 0 0
          0 0 0 0 0 0
          0 0 0 0 0 0
          0 0 0 0 0 0
          0 0 0 0 0 0
          0 0 0 0 0 0
          0 0 0 0 0 0
          0 0 0 0 0 0
          0 0 0 0 0 0
          0 0 0 0 0 0
          0 0 0 0 0 0
          0 0 0 0 0 0
          0 0 0 0 0 0
          0 0 0 0 0 0
          0 0 0 0 0 0
          0 0 0 0 0 0
          0 0 0 0 0 0
          0 0 0 0 0 0
          0 0 0 0 0 0
          0 0 0 0 0 0
          0 0 0 0 0 0
          0 0 0 0 0 0
          0 0 0 0 0 0
          0 0 0 0 0 0
          0 0 0 0 0 0
          0 0 0 0 0 0
          0 0 0 0 0 0
          0 0 0 0 0 0
          0 0 0 0 0 0
          0 0 0 0 0 0
          0 0 0 0 0 0
          0 0 0 0 0 0
          0 0 0 0 0 0
          0 0 0 0 0 0
          0 0 0 0 0 0
          0 0 0 0 0 0
          0 0 0 0 0 0
          0 0 0 0 0 0
          0 0 0 0 0 0
          0 0 0 0 0 0
          0 0 0 0 0 0
          0 0 0 0 0 0
          0 0 0 0 0 0
          0 0 0 0 0 0
          0 0 0 0 0 0
          0 0 0 0 0 0
          0 0 0 0 0 0
          0 0 0 0 0 0
          0 0 0 0 0 0
          0 0 0 0 0 0
          0 0 0 0 0 0
          0 0 0 0 0 0
          0 0 0 0 0 0
          0 0 0 0 0 0
          0 0 0 0 0 0
          0 0 0 0 0 0
          0 0 0 0 0 0
          0 0 0 0 0 0
          0 0 0 0 0 0
          0 0 0 0 0 0
          0 0 0 0 0 0
          0 0 0 0 0 0
          0 0 0 0 0 0
          0 0 0 0 0 0
          0 0 0 0 0 0
          0 0 0 0 0 0
          0 0 0 0 0 0
          0 0 0 0 0 0
          0 0 0 0 0 0
          0 0 0 0 0 0
          0 0 0 0 0 0
          0 0 0 0 0 0
          0 0 0 0 0 0
          0 0 0 0 0 0
          0 0 0 0 0 0
          0 0 0 0 0 0
          0 0 0 0 0 0
          0 0 0 0 0 0
          0 0 0 0 0 0
          0 0 0 0 0 0
          0 0 0 0 0 0
          0 0 0 0 0 0
          0 0 0 0 0 0
          0 0 0 0 0 0
          0 0 0 0 0 0
          0 0 0 0 0 0
          0 0 0 0 0 0
          0 0 0 0 0 0
          0 0 0 0 0 0
          0 0 0 0 0 0
          0 0 0 0 0 0
          0 0 0 0 0 0
          0 0 0 0 0 0
          0 0 0 0 0 0
          0 0 0 0 0 0
          0 0 0 0 0 0
          0 0 0 0 0 0
          0 0 0 0 0 0
          0 0 0 0 0 0
          0 0 0 0 0 0
          0 0 0 0 0 0
          0 0 0 0 0 0
          0 0 0 0 0 0
          0 0 0 0 0 0
          0 0 0 0 0 0
          0 0 0 0 0 0
          0 0 0 0 0 0
          0 0 0 0 0 0
          0 0 0 0 0 0
          0 0 0 0 0 0
          0 0 0 0 0 0
          0 0 0 0 0 0
          0 0 0 0 0 0
          0 0 0 0 0 0
          0 0 0 0 0 0
          0 0 0 0 0 0
          0 0 0 0 0 0
          0 0 0 0 0 0
          0 0 0 0 0 0
          0 0 0 0 0 0
          0 0 0 0 0 0
          0 0 0 0 0 0
          0 0 0 0 0 0
          0 0 0 0 0 0
          0 0 0 0 0 0
          0 0 0 0 0 0
          0 0 0 0 0 0
          0 0 0 0 0 0
          0 0 0 0 0 0
          0 0 0 0 0 0
          0 0 0 0 0 0
          0 0 0 0 0 0
          0 0 0 0 0 0
          0 0 0 0 0 0
          0 0 0 0 0 0
          0 0 0 0 0 0
          0 0 0 0 0 0
          0 0 0 0 0 0
          0 0 0 0 0 0
          0 0 0 0 0 0
          0 0 0 0 0 0
          0 0 0 0 0 0
          0 0 0 0 0 0
          0 0 0 0 0 0
          0 0 0 0 0 0
          0 0 0 0 0 0
          0 0 0 0 0 0
          0 0 0 0 0 0
          0 0 0 0 0 0
          0 0 0 0 0 0
          0 0 0 0 0 0
          0 0 0 0 0 0
          0 0 0 0 0 0
          0 0 0 0 0 0
          0 0 0 0 0 0
          0 0 0 0 0 0
          0 0 0 0 0 0
          0 0 0 0 0 0
          0 0 0 0 0 0
          0 0 0 0 0 0
          0 0 0 0 0 0
          0 0 0 0 0 0
          0 0 0 0 0 0
          0 0 0 0 0 0
          0 0 0 0 0 0
          0 0 0 0 0 0
          0 0 0 0 0 0
          0 0 0 0 0 0
          0 0 0 0 0 0
          0 0 0 0 0 0
          0 0 0 0 0 0
          0 0 0 0 0 0
          0 0 0 0 0 0
          0 0 0 0 0 0
          0 0 0 0 0 0
          0 0 0 0 0 0
          0 0 0 0 0 0
          0 0 0 0 0 0
          0 0 0 0 0 0
          0 0 0 0 0 0
          0 0 0 0 0 0
          0 0 0 0 0 0
          0 0 0 0 0 0
          0 0 0 0 0 0
          0 0 0 0 0 0
          0 0 0 0 0 0
          0 0 0 0 0 0
          0 0 0 0 0 0
          0 0 0 0 0 0
          0 0 0 0 0 0
          0 0 0 0 0 0
          0 0 0 0 0 0
          0 0 0 0 0 0
          0 0 0 0 0 0
          0 0 0 0 0 0
          0 0 0 0 0 0
          0 0 0 0 0 0
          0 0 0 0 0 0
          0 0 0 0 0 0
          0 0 0 0 0 0
          0 0 0 0 0 0
          0 0 0 0 0 0
          0 0 0 0 0 0
          0 0 0 0 0 0
          0 0 0 0 0 0
          0 0 0 0 0 0
          0 0 0 0 0 0
          0 0 0 0 0 0
          0 0 0 0 0 0
          0 0 0 0 0 0
          0 0 0 0 0 0
          0 0 0 0 0 0
          0 0 0 0 0 0
          0 0 0 0 0 0
          0 0 0 0 0 0
          0 0 0 0 0 0
          0 0 0 0 0 0
          0 0 0 0 0 0
          0 0 0 0 0 0
          0 0 0 0 0 0
          0 0 0 0 0 0
          0 0 0 0 0 0
          0 0 0 0 0 0
          0 0 0 0 0 0
          0 0 0 0 0 0
          0 0 0 0 0 0
          0 0 0 0 0 0
          0 0 0 0 0 0
          0 0 0 0 0 0
          0 0 0 0 0 0
          0 0 0 0 0 0
          0 0 0 0 0 0
          0 0 0 0 0 0
          0 0 0 0 0 0
          0 0 0 0 0 0
          0 0 0 0 0 0
          0 0 0 0 0 0
          0 0 0 0 0 0
          0 0 0 0 0 0
          0 0 0 0 0 0
          0 0 0 0 0 0
          0 0 0 0 0 0
          0 0 0 0 0 0
          0 0 0 0 0 0
          0 0 0 0 0 0
          0 0 0 0 0 0
          0 0 0 0 0 0
          0 0 0 0 0 0
          0 0 0 0 0 0
          0 0 0 0 0 0
          0 0 0 0 0 0
          0 0 0 0 0 0
          0 0 0 0 0 0
          0 0 0 0 0 0
          0 0 0 0 0 0
          0 0 0 0 0 0
          0 0 0 0 0 0
          0 0 0 0 0 0
          0 0 0 0 0 0
          0 0 0 0 0 0
          0 0 0 0 0 0
          0 0 0 0 0 0
          0 0 0 0 0 0
          0 0 0 0 0 0
          0 0 0 0 0 0
          0 0 0 0 0 0
          0 0 0 0 0 0
          0 0 0 0 0 0
          0 0 0 0 0 0
          0 0 0 0 0 0
          0 0 0 0 0 0
          0 0 0 0 0 0
          0 0 0 0 0 0
          0 0 0 0 0 0
          0 0 0 0 0 0
          0 0 0 0 0 0
          0 0 0 0 0 0
          0 0 0 0 0 0
          0 0 0 0 0 0
          0 0 0 0 0 0
          0 0 0 0 0 0
          0 0 0 0 0 0
          0 0 0 0 0 0
          0 0 0 0 0 0
          0 0 0 0 0 0
          0 0 0 0 0 0
          0 0 0 0 0 0
          0 0 0 0 0 0
          0 0 0 0 0 0
          0 0 0 0 0 0
          0 0 0 0 0 0
          0 0 0 0 0 0
          0 0 0 0 0 0
          0 0 0 0 0 0
          0 0 0 0 0 0
          0 0 0 0 0 0
          0 0 0 0 0 0
          0 0 0 0 0 0
          0 0 0 0 0 0
          0 0 0 0 0 0
          0 0 0 0 0 0
          0 0 0 0 0 0
          0 0 0 0 0 0
          0 0 0 0 0 0
          0 0 0 0 0 0
          0 0 0 0 0 0
          0 0 0 0 0 0
          0 0 0 0 0 0
          0 0 0 0 0 0
          0 0 0 0 0 0
          0 0 0 0 0 0
          0 0 0 0 0 0
          0 0 0 0 0 0
          0 0 0 0 0 0
          0 0 0 0 0 0
          0 0 0 0 0 0
          0 0 0 0 0 0
          0 0 0 0 0 0
          0 0 0 0 0 0
          0 0 0 0 0 0
          0 0 0 0 0 0
          0 0 0 0 0 0
          0 0 0 0 0 0
          0 0 0 0 0 0
          0 0 0 0 0 0
          0 0 0 0 0 0
          0 0 0 0 0 0
          0 0 0 0 0 0
          0 0 0 0 0 0
          0 0 0 0 0 0
          0 0 0 0 0 0
          0 0 0 0 0 0
          0 0 0 0 0 0
          0 0 0 0 0 0
          0 0 0 0 0 0
          0 0 0 0 0 0
          0 0 0 0 0 0
          0 0 0 0 0 0
          0 0 0 0 0 0
          0 0 0 0 0 0
          0 0 0 0 0 0
          0 0 0 0 0 0
          0 0 0 0 0 0
          0 0 0 0 0 0
          0 0 0 0 0 0
          0 0 0 0 0 0
          0 0 0 0 0 0
          0 0 0 0 0 0
          0 0 0 0 0 0
          0 0 0 0 0 0
          0 0 0 0 0 0
          0 0 0 0 0 0
          0 0 0 0 0 0
          0 0 0 0 0 0
          0 0 0 0 0 0
          0 0 0 0 0 0
          0 0 0 0 0 0
          0 0 0 0 0 0
          0 0 0 0 0 0
          0 0 0 0 0 0
          0 0 0 0 0 0
          0 0 0 0 0 0
          0 0 0 0 0 0
          0 0 0 0 0 0
          0 0 0 0 0 0
          0 0 0 0 0 0
          0 0 0 0 0 0
          0 0 0 0 0 0
          0 0 0 0 0 0
          0 0 0 0 0 0
          0 0 0 0 0 0
          0 0 0 0 0 0
          0 0 0 0 0 0
          0 0 0 0 0 0
          0 0 0 0 0 0
          0 0 0 0 0 0
          0 0 0 0 0 0
          0 0 0 0 0 0
          0 0 0 0 0 0
          0 0 0 0 0 0
          0 0 0 0 0 0
          0 0 0 0 0 0
          0 0 0 0 0 0
          0 0 0 0 0 0
          0 0 0 0 0 0
          0 0 0 0 0 0
          0 0 0 0 0 0
          0 0 0 0 0 0
          0 0 0 0 0 0
          0 0 0 0 0 0
          0 0 0 0 0 0
          0 0 0 0 0 0
          0 0 0 0 0 0
          0 0 0 0 0 0
          0 0 0 0 0 0
          0 0 0 0 0 0
          0 0 0 0 0 0
          0 0 0 0 0 0
          0 0 0 0 0 0
          0 0 0 0 0 0
          0 0 0 0 0 0
          0 0 0 0 0 0
          0 0 0 0 0 0
          0 0 0 0 0 0
          0 0 0 0 0 0
          0 0 0 0 0 0
          0 0 0 0 0 0
          0 0 0 0 0 0
          0 0 0 0 0 0
          0 0 0 0 0 0
          0 0 0 0 0 0
          0 0 0 0 0 0
          0 0 0 0 0 0
          0 0 0 0 0 0
          0 0 0 0 0 0
          0 0 0 0 0 0
          0 0 0 0 0 0
          0 0 0 0 0 0
          0 0 0 0 0 0
          0 0 0 0 0 0
          0 0 0 0 0 0
          0 0 0 0 0 0
          0 0 0 0 0 0
          0 0 0 0 0 0
          0 0 0 0 0 0
          0 0 0 0 0 0
          0 0 0 0 0 0
          0 0 0 0 0 0
          0 0 0 0 0 0
          0 0 0 0 0 0
          0 0 0 0 0 0
          0 0 0 0 0 0
          0 0 0 0 0 0
          0 0 0 0 0 0
          0 0 0 0 0 0
          0 0 0 0 0 0
          0 0 0 0 0 0
          0 0 0 0 0 0
          0 0 0 0 0 0
          0 0 0 0 0 0
          0 0 0 0 0 0
          0 0 0 0 0 0
          0 0 0 0 0 0
          0 0 0 0 0 0
          0 0 0 0 0 0
          0 0 0 0 0 0
          0 0 0 0 0 0
          0 0 0 0 0 0
          0 0 0 0 0 0
          0 0 0 0 0 0
          0 0 0 0 0 0
          0 0 0 0 0 0
          0 0 0 0 0 0
          0 0 0 0 0 0
          0 0 0 0 0 0
          0 0 0 0 0 0
          0 0 0 0 0 0
          0 0 0 0 0 0
          0 0 0 0 0 0
          0 0 0 0 0 0
          0 0 0 0 0 0
          0 0 0 0 0 0
          0 0 0 0 0 0
          0 0 0 0 0 0
          0 0 0 0 0 0
          0 0 0 0 0 0
          0 0 0 0 0 0
          0 0 0 0 0 0
          0 0 0 0 0 0
          0 0 0 0 0 0
          0 0 0 0 0 0
          0 0 0 0 0 0
          0 0 0 0 0 0
          0 0 0 0 0 0
          0 0 0 0 0 0
          0 0 0 0 0 0
          0 0 0 0 0 0
          0 0 0 0 0 0
          0 0 0 0 0 0
          0 0 0 0 0 0
          0 0 0 0 0 0
          0 0 0 0 0 0
          0 0 0 0 0 0
          0 0 0 0 0 0
          0 0 0 0 0 0
          0 0 0 0 0 0
          0 0 0 0 0 0
          0 0 0 0 0 0
          0 0 0 0 0 0
          0 0 0 0 0 0
          0 0 0 0 0 0
          0 0 0 0 0 0
          0 0 0 0 0 0
          0 0 0 0 0 0
          0 0 0 0 0 0
          0 0 0 0 0 0
          0 0 0 0 0 0
          0 0 0 0 0 0
          0 0 0 0 0 0
          0 0 0 0 0 0
          0 0 0 0 0 0
          0 0 0 0 0 0
          0 0 0 0 0 0
          0 0 0 0 0 0
          0 0 0 0 0 0
          0 0 0 0 0 0
          0 0 0 0 0 0
          0 0 0 0 0 0
          0 0 0 0 0 0
          0 0 0 0 0 0
          0 0 0 0 0 0
          0 0 0 0 0 0
          0 0 0 0 0 0
          0 0 0 0 0 0
          0 0 0 0 0 0
          0 0 0 0 0 0
          0 0 0 0 0 0
          0 0 0 0 0 0
          0 0 0 0 0 0
          0 0 0 0 0 0
          0 0 0 0 0 0
          0 0 0 0 0 0
          0 0 0 0 0 0
          0 0 0 0 0 0
          0 0 0 0 0 0
          0 0 0 0 0 0
          0 0 0 0 0 0
          0 0 0 0 0 0
          0 0 0 0 0 0
          0 0 0 0 0 0
          0 0 0 0 0 0
          0 0 0 0 0 0
          0 0 0 0 0 0
          0 0 0 0 0 0
          0 0 0 0 0 0
          0 0 0 0 0 0
          0 0 0 0 0 0
          0 0 0 0 0 0
          0 0 0 0 0 0
          0 0 0 0 0 0
          0 0 0 0 0 0
          0 0 0 0 0 0
          0 0 0 0 0 0
          0 0 0 0 0 0
          0 0 0 0 0 0
          0 0 0 0 0 0
          0 0 0 0 0 0
          0 0 0 0 0 0
          0 0 0 0 0 0
          0 0 0 0 0 0
          0 0 0 0 0 0
          0 0 0 0 0 0
          0 0 0 0 0 0
          0 0 0 0 0 0
          0 0 0 0 0 0
          0 0 0 0 0 0
          0 0 0 0 0 0
          0 0 0 0 0 0
          0 0 0 0 0 0
          0 0 0 0 0 0
          0 0 0 0 0 0
          0 0 0 0 0 0
          0 0 0 0 0 0
          0 0 0 0 0 0
          0 0 0 0 0 0
          0 0 0 0 0 0
          0 0 0 0 0 0
          0 0 0 0 0 0
          0 0 0 0 0 0
          0 0 0 0 0 0
          0 0 0 0 0 0
          0 0 0 0 0 0
          0 0 0 0 0 0
          0 0 0 0 0 0
          0 0 0 0 0 0
          0 0 0 0 0 0
          0 0 0 0 0 0
          0 0 0 0 0 0
          0 0 0 0 0 0
          0 0 0 0 0 0
          0 0 0 0 0 0
          0 0 0 0 0 0
          0 0 0 0 0 0
          0 0 0 0 0 0
          0 0 0 0 0 0
          0 0 0 0 0 0
          0 0 0 0 0 0
          0 0 0 0 0 0
          0 0 0 0 0 0
          0 0 0 0 0 0
          0 0 0 0 0 0
          0 0 0 0 0 0
          0 0 0 0 0 0
          0 0 0 0 0 0
          0 0 0 0 0 0
          0 0 0 0 0 0
          0 0 0 0 0 0
          0 0 0 0 0 0
          0 0 0 0 0 0
          0 0 0 0 0 0
          0 0 0 0 0 0
          0 0 0 0 0 0
          0 0 0 0 0 0
          0 0 0 0 0 0
          0 0 0 0 0 0
          0 0 0 0 0 0
          0 0 0 0 0 0
          0 0 0 0 0 0
          0 0 0 0 0 0
          0 0 0 0 0 0
          0 0 0 0 0 0
          0 0 0 0 0 0
          0 0 0 0 0 0
          0 0 0 0 0 0
          0 0 0 0 0 0
          0 0 0 0 0 0
          0 0 0 0 0 0
          0 0 0 0 0 0
          0 0 0 0 0 0
          0 0 0 0 0 0
          0 0 0 0 0 0
          0 0 0 0 0 0
          0 0 0 0 0 0
          0 0 0 0 0 0
          0 0 0 0 0 0
          0 0 0 0 0 0
          0 0 0 0 0 0
          0 0 0 0 0 0
          0 0 0 0 0 0
          0 0 0 0 0 0
          0 0 0 0 0 0
          0 0 0 0 0 0
          0 0 0 0 0 0
          0 0 0 0 0 0
          0 0 0 0 0 0
          0 0 0 0 0 0
          0 0 0 0 0 0
          0 0 0 0 0 0
          0 0 0 0 0 0
          0 0 0 0 0 0
          0 0 0 0 0 0
          0 0 0 0 0 0
          0 0 0 0 0 0
          0 0 0 0 0 0
          0 0 0 0 0 0
          0 0 0 0 0 0
          0 0 0 0 0 0
          0 0 0 0 0 0
          0 0 0 0 0 0
          0 0 0 0 0 0
          0 0 0 0 0 0
          0 0 0 0 0 0
          0 0 0 0 0 0
          0 0 0 0 0 0
          0 0 0 0 0 0
          0 0 0 0 0 0
          0 0 0 0 0 0
          0 0 0 0 0 0
          0 0 0 0 0 0
          0 0 0 0 0 0
          0 0 0 0 0 0
          0 0 0 0 0 0
          0 0 0 0 0 0
          0 0 0 0 0 0
          0 0 0 0 0 0
          0 0 0 0 0 0
          0 0 0 0 0 0
          0 0 0 0 0 0
          0 0 0 0 0 0
          0 0 0 0 0 0
          0 0 0 0 0 0
          0 0 0 0 0 0
          0 0 0 0 0 0
          0 0 0 0 0 0
          0 0 0 0 0 0
          0 0 0 0 0 0
          0 0 0 0 0 0
          0 0 0 0 0 0
          0 0 0 0 0 0
          0 0 0 0 0 0
          0 0 0 0 0 0
          0 0 0 0 0 0
          0 0 0 0 0 0
          0 0 0 0 0 0
          0 0 0 0 0 0
          0 0 0 0 0 0
          0 0 0 0 0 0
          0 0 0 0 0 0
          0 0 0 0 0 0
          0 0 0 0 0 0
          0 0 0 0 0 0
          0 0 0 0 0 0
          0 0 0 0 0 0
          0 0 0 0 0 0
          0 0 0 0 0 0
          0 0 0 0 0 0
          0 0 0 0 0 0
          0 0 0 0 0 0
          0 0 0 0 0 0
          0 0 0 0 0 0
          0 0 0 0 0 0
          0 0 0 0 0 0
          0 0 0 0 0 0
          0 0 0 0 0 0
          0 0 0 0 0 0
          0 0 0 0 0 0
          0 0 0 0 0 0
          0 0 0 0 0 0
          0 0 0 0 0 0
          0 0 0 0 0 0
          0 0 0 0 0 0
          0 0 0 0 0 0
          0 0 0 0 0 0
          0 0 0 0 0 0
          0 0 0 0 0 0
          0 0 0 0 0 0
          0 0 0 0 0 0
          0 0 0 0 0 0
          0 0 0 0 0 0
          0 0 0 0 0 0
          0 0 0 0 0 0
          0 0 0 0 0 0
          0 0 0 0 0 0
          0 0 0 0 0 0
          0 0 0 0 0 0
          0 0 0 0 0 0
          0 0 0 0 0 0
          0 0 0 0 0 0
          0 0 0 0 0 0
          0 0 0 0 0 0
          0 0 0 0 0 0
          0 0 0 0 0 0
          0 0 0 0 0 0
          0 0 0 0 0 0
          0 0 0 0 0 0
          0 0 0 0 0 0
          0 0 0 0 0 0
          0 0 0 0 0 0
          0 0 0 0 0 0
          0 0 0 0 0 0
          0 0 0 0 0 0
          0 0 0 0 0 0
          0 0 0 0 0 0
          0 0 0 0 0 0
          0 0 0 0 0 0
          0 0 0 0 0 0
          0 0 0 0 0 0
          0 0 0 0 0 0
          0 0 0 0 0 0
          0 0 0 0 0 0
          0 0 0 0 0 0
          0 0 0 0 0 0
          0 0 0 0 0 0
          0 0 0 0 0 0
          0 0 0 0 0 0
          0 0 0 0 0 0
          0 0 0 0 0 0
          0 0 0 0 0 0
          0 0 0 0 0 0
          0 0 0 0 0 0
          0 0 0 0 0 0
          0 0 0 0 0 0
          0 0 0 0 0 0
          0 0 0 0 0 0
          0 0 0 0 0 0
          0 0 0 0 0 0
          0 0 0 0 0 0
          0 0 0 0 0 0
          0 0 0 0 0 0
          0 0 0 0 0 0
          0 0 0 0 0 0
          0 0 0 0 0 0
          0 0 0 0 0 0
          0 0 0 0 0 0
          0 0 0 0 0 0
          0 0 0 0 0 0
          0 0 0 0 0 0
          0 0 0 0 0 0
          0 0 0 0 0 0
          0 0 0 0 0 0
          0 0 0 0 0 0
          0 0 0 0 0 0
          0 0 0 0 0 0
          0 0 0 0 0 0
          0 0 0 0 0 0
          0 0 0 0 0 0
          0 0 0 0 0 0
          0 0 0 0 0 0
          0 0 0 0 0 0
          0 0 0 0 0 0
          0 0 0 0 0 0
          0 0 0 0 0 0
          0 0 0 0 0 0
          0 0 0 0 0 0
          0 0 0 0 0 0
          0 0 0 0 0 0
          0 0 0 0 0 0
          0 0 0 0 0 0
          0 0 0 0 0 0
          0 0 0 0 0 0
          0 0 0 0 0 0
          0 0 0 0 0 0
          0 0 0 0 0 0
          0 0 0 0 0 0
          0 0 0 0 0 0
          0 0 0 0 0 0
          0 0 0 0 0 0
          0 0 0 0 0 0
          0 0 0 0 0 0
          0 0 0 0 0 0
          0 0 0 0 0 0
          0 0 0 0 0 0
          0 0 0 0 0 0
          0 0 0 0 0 0
          0 0 0 0 0 0
          0 0 0 0 0 0
          0 0 0 0 0 0
          0 0 0 0 0 0
          0 0 0 0 0 0
          0 0 0 0 0 0
          0 0 0 0 0 0
          0 0 0 0 0 0
          0 0 0 0 0 0
          0 0 0 0 0 0
          0 0 0 0 0 0
          0 0 0 0 0 0
          0 0 0 0 0 0
          0 0 0 0 0 0
          0 0 0 0 0 0
          0 0 0 0 0 0
          0 0 0 0 0 0
          0 0 0 0 0 0
          0 0 0 0 0 0
          0 0 0 0 0 0
          0 0 0 0 0 0
          0 0 0 0 0 0
          0 0 0 0 0 0
          0 0 0 0 0 0
          0 0 0 0 0 0
          0 0 0 0 0 0
          0 0 0 0 0 0
          0 0 0 0 0 0
          0 0 0 0 0 0
          0 0 0 0 0 0
          0 0 0 0 0 0
          0 0 0 0 0 0
          0 0 0 0 0 0
          0 0 0 0 0 0
          0 0 0 0 0 0
          0 0 0 0 0 0
          0 0 0 0 0 0
          0 0 0 0 0 0
          0 0 0 0 0 0
          0 0 0 0 0 0
          0 0 0 0 0 0
          0 0 0 0 0 0
          0 0 0 0 0 0
          0 0 0 0 0 0
          0 0 0 0 0 0
          0 0 0 0 0 0
          0 0 0 0 0 0
          0 0 0 0 0 0
          0 0 0 0 0 0
          0 0 0 0 0 0
          0 0 0 0 0 0
          0 0 0 0 0 0
          0 0 0 0 0 0
          0 0 0 0 0 0
          0 0 0 0 0 0
          0 0 0 0 0 0
          0 0 0 0 0 0
          0 0 0 0 0 0
          0 0 0 0 0 0
          0 0 0 0 0 0
          0 0 0 0 0 0
          0 0 0 0 0 0
          0 0 0 0 0 0
          0 0 0 0 0 0
          0 0 0 0 0 0
          0 0 0 0 0 0
          0 0 0 0 0 0
          0 0 0 0 0 0
          0 0 0 0 0 0
          0 0 0 0 0 0
          0 0 0 0 0 0
          0 0 0 0 0 0
          0 0 0 0 0 0
          0 0 0 0 0 0
          0 0 0 0 0 0
          0 0 0 0 0 0
          0 0 0 0 0 0
          0 0 0 0 0 0
          0 0 0 0 0 0
          0 0 0 0 0 0
          0 0 0 0 0 0
          0 0 0 0 0 0
          0 0 0 0 0 0
          0 0 0 0 0 0
          0 0 0 0 0 0
          0 0 0 0 0 0
          0 0 0 0 0 0
          0 0 0 0 0 0
          0 0 0 0 0 0
          0 0 0 0 0 0
          0 0 0 0 0 0
          0 0 0 0 0 0
          0 0 0 0 0 0
          0 0 0 0 0 0
          0 0 0 0 0 0
          0 0 0 0 0 0
          0 0 0 0 0 0
          0 0 0 0 0 0
          0 0 0 0 0 0
          0 0 0 0 0 0
          0 0 0 0 0 0
          0 0 0 0 0 0
          0 0 0 0 0 0
          0 0 0 0 0 0
          0 0 0 0 0 0
          0 0 0 0 0 0
          0 0 0 0 0 0
          0 0 0 0 0 0
          0 0 0 0 0 0
          0 0 0 0 0 0
          0 0 0 0 0 0
          0 0 0 0 0 0
          0 0 0 0 0 0
          0 0 0 0 0 0
          0 0 0 0 0 0
          0 0 0 0 0 0
          0 0 0 0 0 0
          0 0 0 0 0 0
          0 0 0 0 0 0
          0 0 0 0 0 0
          0 0 0 0 0 0
          0 0 0 0 0 0
          0 0 0 0 0 0
          0 0 0 0 0 0
          0 0 0 0 0 0
          0 0 0 0 0 0
          0 0 0 0 0 0
          0 0 0 0 0 0
          0 0 0 0 0 0
          0 0 0 0 0 0
          0 0 0 0 0 0
          0 0 0 0 0 0
          0 0 0 0 0 0
          0 0 0 0 0 0
          0 0 0 0 0 0
          0 0 0 0 0 0
          0 0 0 0 0 0
          0 0 0 0 0 0
          0 0 0 0 0 0
          0 0 0 0 0 0
          0 0 0 0 0 0
          0 0 0 0 0 0
          0 0 0 0 0 0
          0 0 0 0 0 0
          0 0 0 0 0 0
          0 0 0 0 0 0
          0 0 0 0 0 0
          0 0 0 0 0 0
          0 0 0 0 0 0
          0 0 0 0 0 0
          0 0 0 0 0 0
          0 0 0 0 0 0
          0 0 0 0 0 0
          0 0 0 0 0 0
          0 0 0 0 0 0
          0 0 0 0 0 0
          0 0 0 0 0 0
          0 0 0 0 0 0
          0 0 0 0 0 0
          0 0 0 0 0 0
          0 0 0 0 0 0
          0 0 0 0 0 0
          0 0 0 0 0 0
          0 0 0 0 0 0
          0 0 0 0 0 0
          0 0 0 0 0 0
          0 0 0 0 0 0
          0 0 0 0 0 0
          0 0 0 0 0 0
          0 0 0 0 0 0
          0 0 0 0 0 0
          0 0 0 0 0 0
          0 0 0 0 0 0
          0 0 0 0 0 0
          0 0 0 0 0 0
          0 0 0 0 0 0
          0 0 0 0 0 0
          0 0 0 0 0 0
          0 0 0 0 0 0
          0 0 0 0 0 0
          0 0 0 0 0 0
          0 0 0 0 0 0
          0 0 0 0 0 0
          0 0 0 0 0 0
          0 0 0 0 0 0
          0 0 0 0 0 0
          0 0 0 0 0 0
          0 0 0 0 0 0
          0 0 0 0 0 0
          0 0 0 0 0 0
          0 0 0 0 0 0
          0 0 0 0 0 0
          0 0 0 0 0 0
          0 0 0 0 0 0
          0 0 0 0 0 0
          0 0 0 0 0 0
          0 0 0 0 0 0
          0 0 0 0 0 0
          0 0 0 0 0 0
          0 0 0 0 0 0
          0 0 0 0 0 0
          0 0 0 0 0 0
          0 0 0 0 0 0
          0 0 0 0 0 0
          0 0 0 0 0 0
          0 0 0 0 0 0
          0 0 0 0 0 0
          0 0 0 0 0 0
          0 0 0 0 0 0
          0 0 0 0 0 0
          0 0 0 0 0 0
          0 0 0 0 0 0
          0 0 0 0 0 0
          0 0 0 0 0 0
          0 0 0 0 0 0
          0 0 0 0 0 0
          0 0 0 0 0 0
          0 0 0 0 0 0
          0 0 0 0 0 0
          0 0 0 0 0 0
          0 0 0 0 0 0
          0 0 0 0 0 0
          0 0 0 0 0 0
          0 0 0 0 0 0
          0 0 0 0 0 0
          0 0 0 0 0 0
          0 0 0 0 0 0
          0 0 0 0 0 0
          0 0 0 0 0 0
          0 0 0 0 0 0
          0 0 0 0 0 0
          0 0 0 0 0 0
          0 0 0 0 0 0
          0 0 0 0 0 0
          0 0 0 0 0 0
          0 0 0 0 0 0
          0 0 0 0 0 0
          0 0 0 0 0 0
          0 0 0 0 0 0
          0 0 0 0 0 0
          0 0 0 0 0 0
          0 0 0 0 0 0
          0 0 0 0 0 0
          0 0 0 0 0 0
          0 0 0 0 0 0
          0 0 0 0 0 0
          0 0 0 0 0 0
          0 0 0 0 0 0
          0 0 0 0 0 0
          0 0 0 0 0 0
          0 0 0 0 0 0
          0 0 0 0 0 0
          0 0 0 0 0 0
          0 0 0 0 0 0
          0 0 0 0 0 0
          0 0 0 0 0 0
          0 0 0 0 0 0
          0 0 0 0 0 0
          0 0 0 0 0 0
          0 0 0 0 0 0
          0 0 0 0 0 0
          0 0 0 0 0 0
          0 0 0 0 0 0
          0 0 0 0 0 0
          0 0 0 0 0 0
          0 0 0 0 0 0
          0 0 0 0 0 0
          0 0 0 0 0 0
          0 0 0 0 0 0
          0 0 0 0 0 0
          0 0 0 0 0 0
          0 0 0 0 0 0
          0 0 0 0 0 0
          0 0 0 0 0 0
          0 0 0 0 0 0
          0 0 0 0 0 0
          0 0 0 0 0 0
          0 0 0 0 0 0
          0 0 0 0 0 0
          0 0 0 0 0 0
          0 0 0 0 0 0
          0 0 0 0 0 0
          0 0 0 0 0 0
          0 0 0 0 0 0
          0 0 0 0 0 0
          0 0 0 0 0 0
          0 0 0 0 0 0
          0 0 0 0 0 0
          0 0 0 0 0 0
          0 0 0 0 0 0
          0 0 0 0 0 0
          0 0 0 0 0 0
          0 0 0 0 0 0
          0 0 0 0 0 0
          0 0 0 0 0 0
          0 0 0 0 0 0
          0 0 0 0 0 0
          0 0 0 0 0 0
          0 0 0 0 0 0
          0 0 0 0 0 0
          0 0 0 0 0 0
          0 0 0 0 0 0
          0 0 0 0 0 0
          0 0 0 0 0 0
          0 0 0 0 0 0
          0 0 0 0 0 0
          0 0 0 0 0 0
          0 0 0 0 0 0
          0 0 0 0 0 0
          0 0 0 0 0 0
          0 0 0 0 0 0
          0 0 0 0 0 0
          0 0 0 0 0 0
          0 0 0 0 0 0
          0 0 0 0 0 0
          0 0 0 0 0 0
          0 0 0 0 0 0
          0 0 0 0 0 0
          0 0 0 0 0 0
          0 0 0 0 0 0
          0 0 0 0 0 0
          0 0 0 0 0 0
          0 0 0 0 0 0
          0 0 0 0 0 0
          0 0 0 0 0 0
          0 0 0 0 0 0
          0 0 0 0 0 0
          0 0 0 0 0 0
          0 0 0 0 0 0
          0 0 0 0 0 0
          0 0 0 0 0 0
          0 0 0 0 0 0
          0 0 0 0 0 0
          0 0 0 0 0 0
          0 0 0 0 0 0
          0 0 0 0 0 0
          0 0 0 0 0 0
          0 0 0 0 0 0
          0 0 0 0 0 0
          0 0 0 0 0 0
          0 0 0 0 0 0
          0 0 0 0 0 0
          0 0 0 0 0 0
          0 0 0 0 0 0
          0 0 0 0 0 0
          0 0 0 0 0 0
          0 0 0 0 0 0
          0 0 0 0 0 0
          0 0 0 0 0 0
          0 0 0 0 0 0
          0 0 0 0 0 0
          0 0 0 0 0 0
          0 0 0 0 0 0
          0 0 0 0 0 0
          0 0 0 0 0 0
          0 0 0 0 0 0
          0 0 0 0 0 0
          0 0 0 0 0 0
          0 0 0 0 0 0
          0 0 0 0 0 0
          0 0 0 0 0 0
          0 0 0 0 0 0
          0 0 0 0 0 0
          0 0 0 0 0 0
          0 0 0 0 0 0
          0 0 0 0 0 0
          0 0 0 0 0 0
          0 0 0 0 0 0
          0 0 0 0 0 0
          0 0 0 0 0 0
          0 0 0 0 0 0
          0 0 0 0 0 0
          0 0 0 0 0 0
          0 0 0 0 0 0
          0 0 0 0 0 0
          0 0 0 0 0 0
          0 0 0 0 0 0
          0 0 0 0 0 0
          0 0 0 0 0 0
          0 0 0 0 0 0
          0 0 0 0 0 0
          0 0 0 0 0 0
          0 0 0 0 0 0
          0 0 0 0 0 0
          0 0 0 0 0 0
          0 0 0 0 0 0
          0 0 0 0 0 0
          0 0 0 0 0 0
          0 0 0 0 0 0
          0 0 0 0 0 0
          0 0 0 0 0 0
          0 0 0 0 0 0
          0 0 0 0 0 0
          0 0 0 0 0 0
          0 0 0 0 0 0
          0 0 0 0 0 0
          0 0 0 0 0 0
          0 0 0 0 0 0
          0 0 0 0 0 0
          0 0 0 0 0 0
          0 0 0 0 0 0
          0 0 0 0 0 0
          0 0 0 0 0 0
          0 0 0 0 0 0
          0 0 0 0 0 0
          0 0 0 0 0 0
          0 0 0 0 0 0
          0 0 0 0 0 0
          0 0 0 0 0 0
          0 0 0 0 0 0
          0 0 0 0 0 0
          0 0 0 0 0 0
          0 0 0 0 0 0
          0 0 0 0 0 0
          0 0 0 0 0 0
          0 0 0 0 0 0
          0 0 0 0 0 0
          0 0 0 0 0 0
          0 0 0 0 0 0
          0 0 0 0 0 0
          0 0 0 0 0 0
          0 0 0 0 0 0
          0 0 0 0 0 0
          0 0 0 0 0 0
          0 0 0 0 0 0
          0 0 0 0 0 0
          0 0 0 0 0 0
          0 0 0 0 0 0
          0 0 0 0 0 0
          0 0 0 0 0 0
          0 0 0 0 0 0
          0 0 0 0 0 0
          0 0 0 0 0 0
          0 0 0 0 0 0
          0 0 0 0 0 0
          0 0 0 0 0 0
          0 0 0 0 0 0
          0 0 0 0 0 0
          0 0 0 0 0 0
          0 0 0 0 0 0
          0 0 0 0 0 0
          0 0 0 0 0 0
          0 0 0 0 0 0
          0 0 0 0 0 0
          0 0 0 0 0 0
          0 0 0 0 0 0
          0 0 0 0 0 0
          0 0 0 0 0 0
          0 0 0 0 0 0
          0 0 0 0 0 0
          0 0 0 0 0 0
          0 0 0 0 0 0
          0 0 0 0 0 0
          0 0 0 0 0 0
          0 0 0 0 0 0
          0 0 0 0 0 0
          0 0 0 0 0 0
          0 0 0 0 0 0
          0 0 0 0 0 0
          0 0 0 0 0 0
          0 0 0 0 0 0
          0 0 0 0 0 0
          0 0 0 0 0 0
          0 0 0 0 0 0
          0 0 0 0 0 0
          0 0 0 0 0 0
          0 0 0 0 0 0
          0 0 0 0 0 0
          0 0 0 0 0 0
          0 0 0 0 0 0
          0 0 0 0 0 0
          0 0 0 0 0 0
          0 0 0 0 0 0
          0 0 0 0 0 0
          0 0 0 0 0 0
          0 0 0 0 0 0
          0 0 0 0 0 0
          0 0 0 0 0 0
          0 0 0 0 0 0
          0 0 0 0 0 0
          0 0 0 0 0 0
          0 0 0 0 0 0
          0 0 0 0 0 0
          0 0 0 0 0 0
          0 0 0 0 0 0
          0 0 0 0 0 0
          0 0 0 0 0 0
          0 0 0 0 0 0
          0 0 0 0 0 0
          0 0 0 0 0 0
          0 0 0 0 0 0
          0 0 0 0 0 0
          0 0 0 0 0 0
          0 0 0 0 0 0
          0 0 0 0 0 0
          0 0 0 0 0 0
          0 0 0 0 0 0
          0 0 0 0 0 0
          0 0 0 0 0 0
          0 0 0 0 0 0
          0 0 0 0 0 0
          0 0 0 0 0 0
          0 0 0 0 0 0
          0 0 0 0 0 0
          0 0 0 0 0 0
          0 0 0 0 0 0
          0 0 0 0 0 0
          0 0 0 0 0 0
          0 0 0 0 0 0
          0 0 0 0 0 0
          0 0 0 0 0 0
          0 0 0 0 0 0
          0 0 0 0 0 0
          0 0 0 0 0 0
          0 0 0 0 0 0
          0 0 0 0 0 0
          0 0 0 0 0 0
          0 0 0 0 0 0
          0 0 0 0 0 0
          0 0 0 0 0 0
          0 0 0 0 0 0
          0 0 0 0 0 0
          0 0 0 0 0 0
          0 0 0 0 0 0
          0 0 0 0 0 0
          0 0 0 0 0 0
          0 0 0 0 0 0
          0 0 0 0 0 0
          0 0 0 0 0 0
          0 0 0 0 0 0
          0 0 0 0 0 0
          0 0 0 0 0 0
          0 0 0 0 0 0
          0 0 0 0 0 0
          0 0 0 0 0 0
          0 0 0 0 0 0
          0 0 0 0 0 0
          0 0 0 0 0 0
          0 0 0 0 0 0
          0 0 0 0 0 0
          0 0 0 0 0 0
          0 0 0 0 0 0
          0 0 0 0 0 0
          0 0 0 0 0 0
          0 0 0 0 0 0
          0 0 0 0 0 0
          0 0 0 0 0 0
          0 0 0 0 0 0
          0 0 0 0 0 0
          0 0 0 0 0 0
          0 0 0 0 0 0
          0 0 0 0 0 0
          0 0 0 0 0 0
          0 0 0 0 0 0
          0 0 0 0 0 0
          0 0 0 0 0 0
          0 0 0 0 0 0
          0 0 0 0 0 0
          0 0 0 0 0 0
          0 0 0 0 0 0
          0 0 0 0 0 0
          0 0 0 0 0 0
          0 0 0 0 0 0
          0 0 0 0 0 0
          0 0 0 0 0 0
          0 0 0 0 0 0
          0 0 0 0 0 0
          0 0 0 0 0 0
          0 0 0 0 0 0
          0 0 0 0 0 0
          0 0 0 0 0 0
          0 0 0 0 0 0
          0 0 0 0 0 0
          0 0 0 0 0 0
          0 0 0 0 0 0
          0 0 0 0 0 0
          0 0 0 0 0 0
          0 0 0 0 0 0
          0 0 0 0 0 0
          0 0 0 0 0 0
          0 0 0 0 0 0
          0 0 0 0 0 0
          0 0 0 0 0 0
          0 0 0 0 0 0
          0 0 0 0 0 0
          0 0 0 0 0 0
          0 0 0 0 0 0
          0 0 0 0 0 0
          0 0 0 0 0 0
          0 0 0 0 0 0
          0 0 0 0 0 0
          0 0 0 0 0 0
          0 0 0 0 0 0
          0 0 0 0 0 0
          0 0 0 0 0 0
          0 0 0 0 0 0
          0 0 0 0 0 0
          0 0 0 0 0 0
          0 0 0 0 0 0
          0 0 0 0 0 0
          0 0 0 0 0 0
          0 0 0 0 0 0
          0 0 0 0 0 0
          0 0 0 0 0 0
          0 0 0 0 0 0
          0 0 0 0 0 0
          0 0 0 0 0 0
          0 0 0 0 0 0
          0 0 0 0 0 0
          0 0 0 0 0 0
          0 0 0 0 0 0
          0 0 0 0 0 0
          0 0 0 0 0 0
          0 0 0 0 0 0
          0 0 0 0 0 0
          0 0 0 0 0 0
          0 0 0 0 0 0
          0 0 0 0 0 0
          0 0 0 0 0 0
          0 0 0 0 0 0
          0 0 0 0 0 0
          0 0 0 0 0 0
          0 0 0 0 0 0
          0 0 0 0 0 0
          0 0 0 0 0 0
          0 0 0 0 0 0
          0 0 0 0 0 0
          0 0 0 0 0 0
          0 0 0 0 0 0
          0 0 0 0 0 0
          0 0 0 0 0 0
          0 0 0 0 0 0
          0 0 0 0 0 0
          0 0 0 0 0 0
          0 0 0 0 0 0
          0 0 0 0 0 0
          0 0 0 0 0 0
          0 0 0 0 0 0
          0 0 0 0 0 0
          0 0 0 0 0 0
          0 0 0 0 0 0
          0 0 0 0 0 0
          0 0 0 0 0 0
          0 0 0 0 0 0
          0 0 0 0 0 0
          0 0 0 0 0 0
          0 0 0 0 0 0
          0 0 0 0 0 0
          0 0 0 0 0 0
          0 0 0 0 0 0
          0 0 0 0 0 0
          0 0 0 0 0 0
          0 0 0 0 0 0
          0 0 0 0 0 0
          0 0 0 0 0 0
          0 0 0 0 0 0
          0 0 0 0 0 0
          0 0 0 0 0 0
          0 0 0 0 0 0
          0 0 0 0 0 0
          0 0 0 0 0 0
          0 0 0 0 0 0
          0 0 0 0 0 0
          0 0 0 0 0 0
          0 0 0 0 0 0
          0 0 0 0 0 0
          0 0 0 0 0 0
          0 0 0 0 0 0
          0 0 0 0 0 0
          0 0 0 0 0 0
          0 0 0 0 0 0
          0 0 0 0 0 0
          0 0 0 0 0 0
          0 0 0 0 0 0
          0 0 0 0 0 0
          0 0 0 0 0 0
          0 0 0 0 0 0
          0 0 0 0 0 0
          0 0 0 0 0 0
          0 0 0 0 0 0
          0 0 0 0 0 0
          0 0 0 0 0 0
          0 0 0 0 0 0
          0 0 0 0 0 0
          0 0 0 0 0 0
          0 0 0 0 0 0
          0 0 0 0 0 0
          0 0 0 0 0 0
          0 0 0 0 0 0
          0 0 0 0 0 0
          0 0 0 0 0 0
          0 0 0 0 0 0
          0 0 0 0 0 0
          0 0 0 0 0 0
          0 0 0 0 0 0
          0 0 0 0 0 0
          0 0 0 0 0 0
          0 0 0 0 0 0
          0 0 0 0 0 0
          0 0 0 0 0 0
          0 0 0 0 0 0
          0 0 0 0 0 0
          0 0 0 0 0 0
          0 0 0 0 0 0
          0 0 0 0 0 0
          0 0 0 0 0 0
          0 0 0 0 0 0
          0 0 0 0 0 0
          0 0 0 0 0 0
          0 0 0 0 0 0
          0 0 0 0 0 0
          0 0 0 0 0 0
          0 0 0 0 0 0
          0 0 0 0 0 0
          0 0 0 0 0 0
          0 0 0 0 0 0
          0 0 0 0 0 0
          0 0 0 0 0 0
          0 0 0 0 0 0
          0 0 0 0 0 0
          0 0 0 0 0 0
          0 0 0 0 0 0
          0 0 0 0 0 0
          0 0 0 0 0 0
          0 0 0 0 0 0
          0 0 0 0 0 0
          0 0 0 0 0 0
          0 0 0 0 0 0
          0 0 0 0 0 0
          0 0 0 0 0 0
          0 0 0 0 0 0
          0 0 0 0 0 0
          0 0 0 0 0 0
          0 0 0 0 0 0
          0 0 0 0 0 0
          0 0 0 0 0 0
          0 0 0 0 0 0
          0 0 0 0 0 0
          0 0 0 0 0 0
          0 0 0 0 0 0
          0 0 0 0 0 0
          0 0 0 0 0 0
          0 0 0 0 0 0
          0 0 0 0 0 0
          0 0 0 0 0 0
          0 0 0 0 0 0
          0 0 0 0 0 0
          0 0 0 0 0 0
          0 0 0 0 0 0
          0 0 0 0 0 0
          0 0 0 0 0 0
          0 0 0 0 0 0
          0 0 0 0 0 0
          0 0 0 0 0 0
          0 0 0 0 0 0
          0 0 0 0 0 0
          0 0 0 0 0 0
          0 0 0 0 0 0
          0 0 0 0 0 0
          0 0 0 0 0 0
          0 0 0 0 0 0
          0 0 0 0 0 0
          0 0 0 0 0 0
          0 0 0 0 0 0
          0 0 0 0 0 0
          0 0 0 0 0 0
          0 0 0 0 0 0
          0 0 0 0 0 0
          0 0 0 0 0 0
          0 0 0 0 0 0
          0 0 0 0 0 0
          0 0 0 0 0 0
          0 0 0 0 0 0
          0 0 0 0 0 0
          0 0 0 0 0 0
          0 0 0 0 0 0
          0 0 0 0 0 0
          0 0 0 0 0 0
          0 0 0 0 0 0
          0 0 0 0 0 0
          0 0 0 0 0 0
          0 0 0 0 0 0
          0 0 0 0 0 0
          0 0 0 0 0 0
          0 0 0 0 0 0
          0 0 0 0 0 0
          0 0 0 0 0 0
          0 0 0 0 0 0
          0 0 0 0 0 0
          0 0 0 0 0 0
          0 0 0 0 0 0
          0 0 0 0 0 0
          0 0 0 0 0 0
          0 0 0 0 0 0
          0 0 0 0 0 0
          0 0 0 0 0 0
          0 0 0 0 0 0
          0 0 0 0 0 0
          0 0 0 0 0 0
          0 0 0 0 0 0
          0 0 0 0 0 0
          0 0 0 0 0 0
          0 0 0 0 0 0
          0 0 0 0 0 0
          0 0 0 0 0 0
          0 0 0 0 0 0
          0 0 0 0 0 0
          0 0 0 0 0 0
          0 0 0 0 0 0
          0 0 0 0 0 0
          0 0 0 0 0 0
          0 0 0 0 0 0
          0 0 0 0 0 0
          0 0 0 0 0 0
          0 0 0 0 0 0
          0 0 0 0 0 0
          0 0 0 0 0 0
          0 0 0 0 0 0
          0 0 0 0 0 0
          0 0 0 0 0 0
          0 0 0 0 0 0
          0 0 0 0 0 0
          0 0 0 0 0 0
          0 0 0 0 0 0
          0 0 0 0 0 0
          0 0 0 0 0 0
          0 0 0 0 0 0
          0 0 0 0 0 0
          0 0 0 0 0 0
          0 0 0 0 0 0
          0 0 0 0 0 0
          0 0 0 0 0 0
          0 0 0 0 0 0
          0 0 0 0 0 0
          0 0 0 0 0 0
          0 0 0 0 0 0
          0 0 0 0 0 0
          0 0 0 0 0 0
          0 0 0 0 0 0
          0 0 0 0 0 0
          0 0 0 0 0 0
          0 0 0 0 0 0
          0 0 0 0 0 0
          0 0 0 0 0 0
          0 0 0 0 0 0
          0 0 0 0 0 0
          0 0 0 0 0 0
          0 0 0 0 0 0
          0 0 0 0 0 0
          0 0 0 0 0 0
          0 0 0 0 0 0
          0 0 0 0 0 0
          0 0 0 0 0 0
          0 0 0 0 0 0
          0 0 0 0 0 0
          0 0 0 0 0 0
          0 0 0 0 0 0
          0 0 0 0 0 0
          0 0 0 0 0 0
          0 0 0 0 0 0
          0 0 0 0 0 0
          0 0 0 0 0 0
          0 0 0 0 0 0
          0 0 0 0 0 0
          0 0 0 0 0 0
          0 0 0 0 0 0
          0 0 0 0 0 0
          0 0 0 0 0 0
          0 0 0 0 0 0
          0 0 0 0 0 0
          0 0 0 0 0 0
          0 0 0 0 0 0
          0 0 0 0 0 0
          0 0 0 0 0 0
          0 0 0 0 0 0
          0 0 0 0 0 0
          0 0 0 0 0 0
          0 0 0 0 0 0
          0 0 0 0 0 0
          0 0 0 0 0 0
          0 0 0 0 0 0
          0 0 0 0 0 0
          0 0 0 0 0 0
          0 0 0 0 0 0
          0 0 0 0 0 0
          0 0 0 0 0 0
          0 0 0 0 0 0
          0 0 0 0 0 0
          0 0 0 0 0 0
          0 0 0 0 0 0
          0 0 0 0 0 0
          0 0 0 0 0 0
          0 0 0 0 0 0
          0 0 0 0 0 0
          0 0 0 0 0 0
          0 0 0 0 0 0
          0 0 0 0 0 0
          0 0 0 0 0 0
          0 0 0 0 0 0
          0 0 0 0 0 0
          0 0 0 0 0 0
          0 0 0 0 0 0
          0 0 0 0 0 0
          0 0 0 0 0 0
          0 0 0 0 0 0
          0 0 0 0 0 0
          0 0 0 0 0 0
          0 0 0 0 0 0
          0 0 0 0 0 0
          0 0 0 0 0 0
          0 0 0 0 0 0
          0 0 0 0 0 0
          0 0 0 0 0 0
          0 0 0 0 0 0
          0 0 0 0 0 0
          0 0 0 0 0 0
          0 0 0 0 0 0
          0 0 0 0 0 0
          0 0 0 0 0 0
          0 0 0 0 0 0
          0 0 0 0 0 0
          0 0 0 0 0 0
          0 0 0 0 0 0
          0 0 0 0 0 0
          0 0 0 0 0 0
          0 0 0 0 0 0
          0 0 0 0 0 0
          0 0 0 0 0 0
          0 0 0 0 0 0
          0 0 0 0 0 0
          0 0 0 0 0 0
          0 0 0 0 0 0
          0 0 0 0 0 0
          0 0 0 0 0 0
          0 0 0 0 0 0
          0 0 0 0 0 0
          0 0 0 0 0 0
          0 0 0 0 0 0
          0 0 0 0 0 0
          0 0 0 0 0 0
          0 0 0 0 0 0
          0 0 0 0 0 0
          0 0 0 0 0 0
          0 0 0 0 0 0
          0 0 0 0 0 0
          0 0 0 0 0 0
          0 0 0 0 0 0
          0 0 0 0 0 0
          0 0 0 0 0 0
          0 0 0 0 0 0
          0 0 0 0 0 0
          0 0 0 0 0 0
          0 0 0 0 0 0
          0 0 0 0 0 0
          0 0 0 0 0 0
          0 0 0 0 0 0
          0 0 0 0 0 0
          0 0 0 0 0 0
          0 0 0 0 0 0
          0 0 0 0 0 0
          0 0 0 0 0 0
          0 0 0 0 0 0
          0 0 0 0 0 0
          0 0 0 0 0 0
          0 0 0 0 0 0
          0 0 0 0 0 0
          0 0 0 0 0 0
          0 0 0 0 0 0
          0 0 0 0 0 0
          0 0 0 0 0 0
          0 0 0 0 0 0
          0 0 0 0 0 0
          0 0 0 0 0 0
          0 0 0 0 0 0
          0 0 0 0 0 0
          0 0 0 0 0 0
          0 0 0 0 0 0
          0 0 0 0 0 0
          0 0 0 0 0 0
          0 0 0 0 0 0
          0 0 0 0 0 0
          0 0 0 0 0 0
          0 0 0 0 0 0
          0 0 0 0 0 0
          0 0 0 0 0 0
          0 0 0 0 0 0
          0 0 0 0 0 0
          0 0 0 0 0 0
          0 0 0 0 0 0
          0 0 0 0 0 0
          0 0 0 0 0 0
          0 0 0 0 0 0
          0 0 0 0 0 0
          0 0 0 0 0 0
          0 0 0 0 0 0
          0 0 0 0 0 0
          0 0 0 0 0 0
          0 0 0 0 0 0
          0 0 0 0 0 0
          0 0 0 0 0 0
          0 0 0 0 0 0
          0 0 0 0 0 0
          0 0 0 0 0 0
          0 0 0 0 0 0
          0 0 0 0 0 0
          0 0 0 0 0 0
          0 0 0 0 0 0
          0 0 0 0 0 0
          0 0 0 0 0 0
          0 0 0 0 0 0
          0 0 0 0 0 0
          0 0 0 0 0 0
          0 0 0 0 0 0
          0 0 0 0 0 0
          0 0 0 0 0 0
          0 0 0 0 0 0
          0 0 0 0 0 0
          0 0 0 0 0 0
          0 0 0 0 0 0
          0 0 0 0 0 0
          0 0 0 0 0 0
          0 0 0 0 0 0
          0 0 0 0 0 0
          0 0 0 0 0 0
          0 0 0 0 0 0
          0 0 0 0 0 0
          0 0 0 0 0 0
          0 0 0 0 0 0
          0 0 0 0 0 0
          0 0 0 0 0 0
          0 0 0 0 0 0
          0 0 0 0 0 0
          0 0 0 0 0 0
          0 0 0 0 0 0
          0 0 0 0 0 0
          0 0 0 0 0 0
          0 0 0 0 0 0
          0 0 0 0 0 0
          0 0 0 0 0 0
          0 0 0 0 0 0
          0 0 0 0 0 0
          0 0 0 0 0 0
          0 0 0 0 0 0
          0 0 0 0 0 0
          0 0 0 0 0 0
          0 0 0 0 0 0
          0 0 0 0 0 0
          0 0 0 0 0 0
          0 0 0 0 0 0
          0 0 0 0 0 0
          0 0 0 0 0 0
          0 0 0 0 0 0
          0 0 0 0 0 0
          0 0 0 0 0 0
          0 0 0 0 0 0
          0 0 0 0 0 0
          0 0 0 0 0 0
          0 0 0 0 0 0
          0 0 0 0 0 0
          0 0 0 0 0 0
          0 0 0 0 0 0
          0 0 0 0 0 0
          0 0 0 0 0 0
          0 0 0 0 0 0
          0 0 0 0 0 0
          0 0 0 0 0 0
          0 0 0 0 0 0
          0 0 0 0 0 0
          0 0 0 0 0 0
          0 0 0 0 0 0
          0 0 0 0 0 0
          0 0 0 0 0 0
          0 0 0 0 0 0
          0 0 0 0 0 0
          0 0 0 0 0 0
          0 0 0 0 0 0
          0 0 0 0 0 0
          0 0 0 0 0 0
          0 0 0 0 0 0
          0 0 0 0 0 0
          0 0 0 0 0 0
          0 0 0 0 0 0
          0 0 0 0 0 0
          0 0 0 0 0 0
          0 0 0 0 0 0
          0 0 0 0 0 0
          0 0 0 0 0 0
          0 0 0 0 0 0
          0 0 0 0 0 0
          0 0 0 0 0 0
          0 0 0 0 0 0
          0 0 0 0 0 0
          0 0 0 0 0 0
          0 0 0 0 0 0
          0 0 0 0 0 0
          0 0 0 0 0 0
          0 0 0 0 0 0
          0 0 0 0 0 0
          0 0 0 0 0 0
          0 0 0 0 0 0
          0 0 0 0 0 0
          0 0 0 0 0 0
          0 0 0 0 0 0
          0 0 0 0 0 0
          0 0 0 0 0 0
          0 0 0 0 0 0
          0 0 0 0 0 0
          0 0 0 0 0 0
          0 0 0 0 0 0
          0 0 0 0 0 0
          0 0 0 0 0 0
          0 0 0 0 0 0
          0 0 0 0 0 0
          0 0 0 0 0 0
          0 0 0 0 0 0
          0 0 0 0 0 0
          0 0 0 0 0 0
          0 0 0 0 0 0
          0 0 0 0 0 0
          0 0 0 0 0 0
          0 0 0 0 0 0
          0 0 0 0 0 0
          0 0 0 0 0 0
          0 0 0 0 0 0
          0 0 0 0 0 0
          0 0 0 0 0 0
          0 0 0 0 0 0
          0 0 0 0 0 0
          0 0 0 0 0 0
          0 0 0 0 0 0
          0 0 0 0 0 0
          0 0 0 0 0 0
          0 0 0 0 0 0
          0 0 0 0 0 0
          0 0 0 0 0 0
          0 0 0 0 0 0
          0 0 0 0 0 0
          0 0 0 0 0 0
          0 0 0 0 0 0
          0 0 0 0 0 0
          0 0 0 0 0 0
          0 0 0 0 0 0
          0 0 0 0 0 0
          0 0 0 0 0 0
          0 0 0 0 0 0
          0 0 0 0 0 0
          0 0 0 0 0 0
          0 0 0 0 0 0
          0 0 0 0 0 0
          0 0 0 0 0 0
          0 0 0 0 0 0
          0 0 0 0 0 0
          0 0 0 0 0 0
          0 0 0 0 0 0
          0 0 0 0 0 0
          0 0 0 0 0 0
          0 0 0 0 0 0
          0 0 0 0 0 0
          0 0 0 0 0 0
          0 0 0 0 0 0
          0 0 0 0 0 0
          0 0 0 0 0 0
          0 0 0 0 0 0
          0 0 0 0 0 0
          0 0 0 0 0 0
          0 0 0 0 0 0
          0 0 0 0 0 0
          0 0 0 0 0 0
          0 0 0 0 0 0
          0 0 0 0 0 0
          0 0 0 0 0 0
          0 0 0 0 0 0
          0 0 0 0 0 0
          0 0 0 0 0 0
          0 0 0 0 0 0
          0 0 0 0 0 0
          0 0 0 0 0 0
          0 0 0 0 0 0
          0 0 0 0 0 0
          0 0 0 0 0 0
          0 0 0 0 0 0
          0 0 0 0 0 0
          0 0 0 0 0 0
          0 0 0 0 0 0
          0 0 0 0 0 0
          0 0 0 0 0 0
          0 0 0 0 0 0
          0 0 0 0 0 0
          0 0 0 0 0 0
          0 0 0 0 0 0
          0 0 0 0 0 0
          0 0 0 0 0 0
          0 0 0 0 0 0
          0 0 0 0 0 0
          0 0 0 0 0 0
          0 0 0 0 0 0
          0 0 0 0 0 0
          0 0 0 0 0 0
          0 0 0 0 0 0
          0 0 0 0 0 0
          0 0 0 0 0 0
          0 0 0 0 0 0
          0 0 0 0 0 0
          0 0 0 0 0 0
          0 0 0 0 0 0
          0 0 0 0 0 0
          0 0 0 0 0 0
          0 0 0 0 0 0
          0 0 0 0 0 0
          0 0 0 0 0 0
          0 0 0 0 0 0
          0 0 0 0 0 0
          0 0 0 0 0 0
          0 0 0 0 0 0
          0 0 0 0 0 0
          0 0 0 0 0 0
          0 0 0 0 0 0
          0 0 0 0 0 0
          0 0 0 0 0 0
          0 0 0 0 0 0
          0 0 0 0 0 0
          0 0 0 0 0 0
          0 0 0 0 0 0
          0 0 0 0 0 0
          0 0 0 0 0 0
          0 0 0 0 0 0
          0 0 0 0 0 0
          0 0 0 0 0 0
          0 0 0 0 0 0
          0 0 0 0 0 0
          0 0 0 0 0 0
          0 0 0 0 0 0
          0 0 0 0 0 0
          0 0 0 0 0 0
          0 0 0 0 0 0
          0 0 0 0 0 0
          0 0 0 0 0 0
          0 0 0 0 0 0
          0 0 0 0 0 0
          0 0 0 0 0 0
          0 0 0 0 0 0
          0 0 0 0 0 0
          0 0 0 0 0 0
          0 0 0 0 0 0
          0 0 0 0 0 0
          0 0 0 0 0 0
          0 0 0 0 0 0
          0 0 0 0 0 0
          0 0 0 0 0 0
          0 0 0 0 0 0
          0 0 0 0 0 0
          0 0 0 0 0 0
          0 0 0 0 0 0
          0 0 0 0 0 0
          0 0 0 0 0 0
          0 0 0 0 0 0
          0 0 0 0 0 0
          0 0 0 0 0 0
          0 0 0 0 0 0
          0 0 0 0 0 0
          0 0 0 0 0 0
          0 0 0 0 0 0
          0 0 0 0 0 0
          0 0 0 0 0 0
          0 0 0 0 0 0
          0 0 0 0 0 0
          0 0 0 0 0 0
          0 0 0 0 0 0
          0 0 0 0 0 0
          0 0 0 0 0 0
          0 0 0 0 0 0
          0 0 0 0 0 0
          0 0 0 0 0 0
          0 0 0 0 0 0
          0 0 0 0 0 0
          0 0 0 0 0 0
          0 0 0 0 0 0
          0 0 0 0 0 0
          0 0 0 0 0 0
          0 0 0 0 0 0
          0 0 0 0 0 0
          0 0 0 0 0 0
          0 0 0 0 0 0
          0 0 0 0 0 0
          0 0 0 0 0 0
          0 0 0 0 0 0
          0 0 0 0 0 0
          0 0 0 0 0 0
          0 0 0 0 0 0
          0 0 0 0 0 0
          0 0 0 0 0 0
          0 0 0 0 0 0
          0 0 0 0 0 0
          0 0 0 0 0 0
          0 0 0 0 0 0
          0 0 0 0 0 0
          0 0 0 0 0 0
          0 0 0 0 0 0
          0 0 0 0 0 0
          0 0 0 0 0 0
          0 0 0 0 0 0
          0 0 0 0 0 0
          0 0 0 0 0 0
          0 0 0 0 0 0
          0 0 0 0 0 0
          0 0 0 0 0 0
          0 0 0 0 0 0
          0 0 0 0 0 0
          0 0 0 0 0 0
          0 0 0 0 0 0
          0 0 0 0 0 0
          0 0 0 0 0 0
          0 0 0 0 0 0
          0 0 0 0 0 0
          0 0 0 0 0 0
          0 0 0 0 0 0
          0 0 0 0 0 0
          0 0 0 0 0 0
          0 0 0 0 0 0
          0 0 0 0 0 0
          0 0 0 0 0 0
          0 0 0 0 0 0
          0 0 0 0 0 0
          0 0 0 0 0 0
          0 0 0 0 0 0
          0 0 0 0 0 0
          0 0 0 0 0 0
          0 0 0 0 0 0
          0 0 0 0 0 0
          0 0 0 0 0 0
          0 0 0 0 0 0
          0 0 0 0 0 0
          0 0 0 0 0 0
          0 0 0 0 0 0
          0 0 0 0 0 0
          0 0 0 0 0 0
          0 0 0 0 0 0
          0 0 0 0 0 0
          0 0 0 0 0 0
          0 0 0 0 0 0
          0 0 0 0 0 0
          0 0 0 0 0 0
          0 0 0 0 0 0
          0 0 0 0 0 0
          0 0 0 0 0 0
          0 0 0 0 0 0
          0 0 0 0 0 0
          0 0 0 0 0 0
          0 0 0 0 0 0
          0 0 0 0 0 0
          0 0 0 0 0 0
          0 0 0 0 0 0
          0 0 0 0 0 0
          0 0 0 0 0 0
          0 0 0 0 0 0
          0 0 0 0 0 0
          0 0 0 0 0 0
          0 0 0 0 0 0
          0 0 0 0 0 0
          0 0 0 0 0 0
          0 0 0 0 0 0
          0 0 0 0 0 0
          0 0 0 0 0 0
          0 0 0 0 0 0
          0 0 0 0 0 0
          0 0 0 0 0 0
          0 0 0 0 0 0
          0 0 0 0 0 0
          0 0 0 0 0 0
          0 0 0 0 0 0
          0 0 0 0 0 0
          0 0 0 0 0 0
          0 0 0 0 0 0
          0 0 0 0 0 0
          0 0 0 0 0 0
          0 0 0 0 0 0
          0 0 0 0 0 0
          0 0 0 0 0 0
          0 0 0 0 0 0
          0 0 0 0 0 0
          0 0 0 0 0 0
          0 0 0 0 0 0
          0 0 0 0 0 0
          0 0 0 0 0 0
          0 0 0 0 0 0
          0 0 0 0 0 0
          0 0 0 0 0 0
          0 0 0 0 0 0
          0 0 0 0 0 0
          0 0 0 0 0 0
          0 0 0 0 0 0
          0 0 0 0 0 0
          0 0 0 0 0 0
          0 0 0 0 0 0
          0 0 0 0 0 0
          0 0 0 0 0 0
          0 0 0 0 0 0
          0 0 0 0 0 0
          0 0 0 0 0 0
          0 0 0 0 0 0
          0 0 0 0 0 0
          0 0 0 0 0 0
          0 0 0 0 0 0
          0 0 0 0 0 0
          0 0 0 0 0 0
          0 0 0 0 0 0
          0 0 0 0 0 0
          0 0 0 0 0 0
          0 0 0 0 0 0
          0 0 0 0 0 0
          0 0 0 0 0 0
          0 0 0 0 0 0
          0 0 0 0 0 0
          0 0 0 0 0 0
          0 0 0 0 0 0
          0 0 0 0 0 0
          0 0 0 0 0 0
          0 0 0 0 0 0
          0 0 0 0 0 0
          0 0 0 0 0 0
          0 0 0 0 0 0
          0 0 0 0 0 0
          0 0 0 0 0 0
          0 0 0 0 0 0
          0 0 0 0 0 0
          0 0 0 0 0 0
          0 0 0 0 0 0
          0 0 0 0 0 0
          0 0 0 0 0 0
          0 0 0 0 0 0
          0 0 0 0 0 0
          0 0 0 0 0 0
          0 0 0 0 0 0
          0 0 0 0 0 0
          0 0 0 0 0 0
          0 0 0 0 0 0
          0 0 0 0 0 0
          0 0 0 0 0 0
          0 0 0 0 0 0
          0 0 0 0 0 0
          0 0 0 0 0 0
          0 0 0 0 0 0
          0 0 0 0 0 0
          0 0 0 0 0 0
          0 0 0 0 0 0
          0 0 0 0 0 0
          0 0 0 0 0 0
          0 0 0 0 0 0
          0 0 0 0 0 0
          0 0 0 0 0 0
          0 0 0 0 0 0
          0 0 0 0 0 0
          0 0 0 0 0 0
          0 0 0 0 0 0
          0 0 0 0 0 0
          0 0 0 0 0 0
          0 0 0 0 0 0
          0 0 0 0 0 0
          0 0 0 0 0 0
          0 0 0 0 0 0
          0 0 0 0 0 0
          0 0 0 0 0 0
          0 0 0 0 0 0
          0 0 0 0 0 0
          0 0 0 0 0 0
          0 0 0 0 0 0
          0 0 0 0 0 0
          0 0 0 0 0 0
          0 0 0 0 0 0
          0 0 0 0 0 0
          0 0 0 0 0 0
          0 0 0 0 0 0
          0 0 0 0 0 0
          0 0 0 0 0 0
          0 0 0 0 0 0
          0 0 0 0 0 0
          0 0 0 0 0 0
          0 0 0 0 0 0
          0 0 0 0 0 0
          0 0 0 0 0 0
          0 0 0 0 0 0
          0 0 0 0 0 0
          0 0 0 0 0 0
          0 0 0 0 0 0
          0 0 0 0 0 0
          0 0 0 0 0 0
          0 0 0 0 0 0
          0 0 0 0 0 0
          0 0 0 0 0 0
          0 0 0 0 0 0
          0 0 0 0 0 0
          0 0 0 0 0 0
          0 0 0 0 0 0
          0 0 0 0 0 0
          0 0 0 0 0 0
          0 0 0 0 0 0
          0 0 0 0 0 0
          0 0 0 0 0 0
          0 0 0 0 0 0
          0 0 0 0 0 0
          0 0 0 0 0 0
          0 0 0 0 0 0
          0 0 0 0 0 0
          0 0 0 0 0 0
          0 0 0 0 0 0
          0 0 0 0 0 0
          0 0 0 0 0 0
          0 0 0 0 0 0
          0 0 0 0 0 0
          0 0 0 0 0 0
          0 0 0 0 0 0
          0 0 0 0 0 0
          0 0 0 0 0 0
          0 0 0 0 0 0
          0 0 0 0 0 0
          0 0 0 0 0 0
          0 0 0 0 0 0
          0 0 0 0 0 0
          0 0 0 0 0 0
          0 0 0 0 0 0
          0 0 0 0 0 0
          0 0 0 0 0 0
          0 0 0 0 0 0
          0 0 0 0 0 0
          0 0 0 0 0 0
          0 0 0 0 0 0
          0 0 0 0 0 0
          0 0 0 0 0 0
          0 0 0 0 0 0
          0 0 0 0 0 0
          0 0 0 0 0 0
          0 0 0 0 0 0
          0 0 0 0 0 0
          0 0 0 0 0 0
          0 0 0 0 0 0
          0 0 0 0 0 0
          0 0 0 0 0 0
          0 0 0 0 0 0
          0 0 0 0 0 0
          0 0 0 0 0 0
          0 0 0 0 0 0
          0 0 0 0 0 0
          0 0 0 0 0 0
          0 0 0 0 0 0
          0 0 0 0 0 0
          0 0 0 0 0 0
          0 0 0 0 0 0
          0 0 0 0 0 0
          0 0 0 0 0 0
          0 0 0 0 0 0
          0 0 0 0 0 0
          0 0 0 0 0 0
          0 0 0 0 0 0
          0 0 0 0 0 0
          0 0 0 0 0 0
          0 0 0 0 0 0
          0 0 0 0 0 0
          0 0 0 0 0 0
          0 0 0 0 0 0
          0 0 0 0 0 0
          0 0 0 0 0 0
          0 0 0 0 0 0
          0 0 0 0 0 0
          0 0 0 0 0 0
          0 0 0 0 0 0
          0 0 0 0 0 0
          0 0 0 0 0 0
          0 0 0 0 0 0
          0 0 0 0 0 0
          0 0 0 0 0 0
          0 0 0 0 0 0
          0 0 0 0 0 0
          0 0 0 0 0 0
          0 0 0 0 0 0
          0 0 0 0 0 0
          0 0 0 0 0 0
          0 0 0 0 0 0
          0 0 0 0 0 0
          0 0 0 0 0 0
          0 0 0 0 0 0
          0 0 0 0 0 0
          0 0 0 0 0 0
          0 0 0 0 0 0
          0 0 0 0 0 0
          0 0 0 0 0 0
          0 0 0 0 0 0
          0 0 0 0 0 0
          0 0 0 0 0 0
          0 0 0 0 0 0
          0 0 0 0 0 0
          0 0 0 0 0 0
          0 0 0 0 0 0
          0 0 0 0 0 0
          0 0 0 0 0 0
          0 0 0 0 0 0
          0 0 0 0 0 0
          0 0 0 0 0 0
          0 0 0 0 0 0
          0 0 0 0 0 0
          0 0 0 0 0 0
          0 0 0 0 0 0
          0 0 0 0 0 0
          0 0 0 0 0 0
          0 0 0 0 0 0
          0 0 0 0 0 0
          0 0 0 0 0 0
          0 0 0 0 0 0
          0 0 0 0 0 0
          0 0 0 0 0 0
          0 0 0 0 0 0
          0 0 0 0 0 0
          0 0 0 0 0 0
          0 0 0 0 0 0
          0 0 0 0 0 0
          0 0 0 0 0 0
          0 0 0 0 0 0
          0 0 0 0 0 0
          0 0 0 0 0 0
          0 0 0 0 0 0
          0 0 0 0 0 0
          0 0 0 0 0 0
          0 0 0 0 0 0
          0 0 0 0 0 0
          0 0 0 0 0 0
          0 0 0 0 0 0
          0 0 0 0 0 0
          0 0 0 0 0 0
          0 0 0 0 0 0
          0 0 0 0 0 0
          0 0 0 0 0 0
          0 0 0 0 0 0
          0 0 0 0 0 0
          0 0 0 0 0 0
          0 0 0 0 0 0
          0 0 0 0 0 0
          0 0 0 0 0 0
          0 0 0 0 0 0
          0 0 0 0 0 0
          0 0 0 0 0 0
          0 0 0 0 0 0
          0 0 0 0 0 0
          0 0 0 0 0 0
          0 0 0 0 0 0
          0 0 0 0 0 0
          0 0 0 0 0 0
          0 0 0 0 0 0
          0 0 0 0 0 0
          0 0 0 0 0 0
          0 0 0 0 0 0
          0 0 0 0 0 0
          0 0 0 0 0 0
          0 0 0 0 0 0
          0 0 0 0 0 0
          0 0 0 0 0 0
          0 0 0 0 0 0
          0 0 0 0 0 0
          0 0 0 0 0 0
          0 0 0 0 0 0
          0 0 0 0 0 0
          0 0 0 0 0 0
          0 0 0 0 0 0
          0 0 0 0 0 0
          0 0 0 0 0 0
          0 0 0 0 0 0
          0 0 0 0 0 0
          0 0 0 0 0 0
          0 0 0 0 0 0
          0 0 0 0 0 0
          0 0 0 0 0 0
          0 0 0 0 0 0
          0 0 0 0 0 0
          0 0 0 0 0 0
          0 0 0 0 0 0
          0 0 0 0 0 0
          0 0 0 0 0 0
          0 0 0 0 0 0
          0 0 0 0 0 0
          0 0 0 0 0 0
          0 0 0 0 0 0
          0 0 0 0 0 0
          0 0 0 0 0 0
          0 0 0 0 0 0
          0 0 0 0 0 0
          0 0 0 0 0 0
          0 0 0 0 0 0
          0 0 0 0 0 0
          0 0 0 0 0 0
          0 0 0 0 0 0
          0 0 0 0 0 0
          0 0 0 0 0 0
          0 0 0 0 0 0
          0 0 0 0 0 0
          0 0 0 0 0 0
          0 0 0 0 0 0
          0 0 0 0 0 0
          0 0 0 0 0 0
          0 0 0 0 0 0
          0 0 0 0 0 0
          0 0 0 0 0 0
          0 0 0 0 0 0
          0 0 0 0 0 0
          0 0 0 0 0 0
          0 0 0 0 0 0
          0 0 0 0 0 0
          0 0 0 0 0 0
          0 0 0 0 0 0
          0 0 0 0 0 0
          0 0 0 0 0 0
          0 0 0 0 0 0
          0 0 0 0 0 0
          0 0 0 0 0 0
          0 0 0 0 0 0
          0 0 0 0 0 0
          0 0 0 0 0 0
          0 0 0 0 0 0
          0 0 0 0 0 0
          0 0 0 0 0 0
          0 0 0 0 0 0
          0 0 0 0 0 0
          0 0 0 0 0 0
          0 0 0 0 0 0
          0 0 0 0 0 0
          0 0 0 0 0 0
          0 0 0 0 0 0
          0 0 0 0 0 0
          0 0 0 0 0 0
          0 0 0 0 0 0
          0 0 0 0 0 0
          0 0 0 0 0 0
          0 0 0 0 0 0
          0 0 0 0 0 0
          0 0 0 0 0 0
          0 0 0 0 0 0
          0 0 0 0 0 0
          0 0 0 0 0 0
          0 0 0 0 0 0
          0 0 0 0 0 0
          0 0 0 0 0 0
          0 0 0 0 0 0
          0 0 0 0 0 0
          0 0 0 0 0 0
          0 0 0 0 0 0
          0 0 0 0 0 0
          0 0 0 0 0 0
          0 0 0 0 0 0
          0 0 0 0 0 0
          0 0 0 0 0 0
          0 0 0 0 0 0
          0 0 0 0 0 0
          0 0 0 0 0 0
          0 0 0 0 0 0
          0 0 0 0 0 0
          0 0 0 0 0 0
          0 0 0 0 0 0
          0 0 0 0 0 0
          0 0 0 0 0 0
          0 0 0 0 0 0
          0 0 0 0 0 0
          0 0 0 0 0 0
          0 0 0 0 0 0
          0 0 0 0 0 0
          0 0 0 0 0 0
          0 0 0 0 0 0
          0 0 0 0 0 0
          0 0 0 0 0 0
          0 0 0 0 0 0
          0 0 0 0 0 0
          0 0 0 0 0 0
          0 0 0 0 0 0
          0 0 0 0 0 0
          0 0 0 0 0 0
          0 0 0 0 0 0
          0 0 0 0 0 0
          0 0 0 0 0 0
          0 0 0 0 0 0
          0 0 0 0 0 0
          0 0 0 0 0 0
          0 0 0 0 0 0
          0 0 0 0 0 0
          0 0 0 0 0 0
          0 0 0 0 0 0
          0 0 0 0 0 0
          0 0 0 0 0 0
          0 0 0 0 0 0
          0 0 0 0 0 0
          0 0 0 0 0 0
          0 0 0 0 0 0
          0 0 0 0 0 0
          0 0 0 0 0 0
          0 0 0 0 0 0
          0 0 0 0 0 0
          0 0 0 0 0 0
          0 0 0 0 0 0
          0 0 0 0 0 0
          0 0 0 0 0 0
          0 0 0 0 0 0
          0 0 0 0 0 0
          0 0 0 0 0 0
          0 0 0 0 0 0
          0 0 0 0 0 0
          0 0 0 0 0 0
          0 0 0 0 0 0
          0 0 0 0 0 0
          0 0 0 0 0 0
          0 0 0 0 0 0
          0 0 0 0 0 0
          0 0 0 0 0 0
          0 0 0 0 0 0
          0 0 0 0 0 0
          0 0 0 0 0 0
          0 0 0 0 0 0
          0 0 0 0 0 0
          0 0 0 0 0 0
          0 0 0 0 0 0
          0 0 0 0 0 0
          0 0 0 0 0 0
          0 0 0 0 0 0
          0 0 0 0 0 0
          0 0 0 0 0 0
          0 0 0 0 0 0
          0 0 0 0 0 0
          0 0 0 0 0 0
          0 0 0 0 0 0
          0 0 0 0 0 0
          0 0 0 0 0 0
          0 0 0 0 0 0
          0 0 0 0 0 0
          0 0 0 0 0 0
          0 0 0 0 0 0
          0 0 0 0 0 0
          0 0 0 0 0 0
          0 0 0 0 0 0
          0 0 0 0 0 0
          0 0 0 0 0 0
          0 0 0 0 0 0
          0 0 0 0 0 0
          0 0 0 0 0 0
          0 0 0 0 0 0
          0 0 0 0 0 0
          0 0 0 0 0 0
          0 0 0 0 0 0
          0 0 0 0 0 0
          0 0 0 0 0 0
          0 0 0 0 0 0
          0 0 0 0 0 0
          0 0 0 0 0 0
          0 0 0 0 0 0
          0 0 0 0 0 0
          0 0 0 0 0 0
          0 0 0 0 0 0
          0 0 0 0 0 0
          0 0 0 0 0 0
          0 0 0 0 0 0
          0 0 0 0 0 0
          0 0 0 0 0 0
          0 0 0 0 0 0
          0 0 0 0 0 0
          0 0 0 0 0 0
          0 0 0 0 0 0
          0 0 0 0 0 0
          0 0 0 0 0 0
          0 0 0 0 0 0
          0 0 0 0 0 0
          0 0 0 0 0 0
          0 0 0 0 0 0
          0 0 0 0 0 0
          0 0 0 0 0 0
          0 0 0 0 0 0
          0 0 0 0 0 0
          0 0 0 0 0 0
          0 0 0 0 0 0
          0 0 0 0 0 0
          0 0 0 0 0 0
          0 0 0 0 0 0
          0 0 0 0 0 0
          0 0 0 0 0 0
          0 0 0 0 0 0
          0 0 0 0 0 0
          0 0 0 0 0 0
          0 0 0 0 0 0
          0 0 0 0 0 0
          0 0 0 0 0 0
          0 0 0 0 0 0
          0 0 0 0 0 0
          0 0 0 0 0 0
          0 0 0 0 0 0
          0 0 0 0 0 0
          0 0 0 0 0 0
          0 0 0 0 0 0
          0 0 0 0 0 0
          0 0 0 0 0 0
          0 0 0 0 0 0
          0 0 0 0 0 0
          0 0 0 0 0 0
          0 0 0 0 0 0
          0 0 0 0 0 0
          0 0 0 0 0 0
          0 0 0 0 0 0
          0 0 0 0 0 0
          0 0 0 0 0 0
          0 0 0 0 0 0
          0 0 0 0 0 0
          0 0 0 0 0 0
          0 0 0 0 0 0
          0 0 0 0 0 0
          0 0 0 0 0 0
          0 0 0 0 0 0
          0 0 0 0 0 0
          0 0 0 0 0 0
          0 0 0 0 0 0
          0 0 0 0 0 0
          0 0 0 0 0 0
          0 0 0 0 0 0
          0 0 0 0 0 0
          0 0 0 0 0 0
          0 0 0 0 0 0
          0 0 0 0 0 0
          0 0 0 0 0 0
          0 0 0 0 0 0
          0 0 0 0 0 0
          0 0 0 0 0 0
          0 0 0 0 0 0
          0 0 0 0 0 0
          0 0 0 0 0 0
          0 0 0 0 0 0
          0 0 0 0 0 0
          0 0 0 0 0 0
          0 0 0 0 0 0
          0 0 0 0 0 0
          0 0 0 0 0 0
          0 0 0 0 0 0
          0 0 0 0 0 0
          0 0 0 0 0 0
          0 0 0 0 0 0
          0 0 0 0 0 0
          0 0 0 0 0 0
          0 0 0 0 0 0
          0 0 0 0 0 0
          0 0 0 0 0 0
          0 0 0 0 0 0
          0 0 0 0 0 0
          0 0 0 0 0 0
          0 0 0 0 0 0
          0 0 0 0 0 0
          0 0 0 0 0 0
          0 0 0 0 0 0
          0 0 0 0 0 0
          0 0 0 0 0 0
          0 0 0 0 0 0
          0 0 0 0 0 0
          0 0 0 0 0 0
          0 0 0 0 0 0
          0 0 0 0 0 0
          0 0 0 0 0 0
          0 0 0 0 0 0
          0 0 0 0 0 0
          0 0 0 0 0 0
          0 0 0 0 0 0
          0 0 0 0 0 0
          0 0 0 0 0 0
          0 0 0 0 0 0
          0 0 0 0 0 0
          0 0 0 0 0 0
          0 0 0 0 0 0
          0 0 0 0 0 0
          0 0 0 0 0 0
          0 0 0 0 0 0
          0 0 0 0 0 0
          0 0 0 0 0 0
          0 0 0 0 0 0
          0 0 0 0 0 0
          0 0 0 0 0 0
          0 0 0 0 0 0
          0 0 0 0 0 0
          0 0 0 0 0 0
          0 0 0 0 0 0
          0 0 0 0 0 0
          0 0 0 0 0 0
          0 0 0 0 0 0
          0 0 0 0 0 0
          0 0 0 0 0 0
          0 0 0 0 0 0
          0 0 0 0 0 0
          0 0 0 0 0 0
          0 0 0 0 0 0
          0 0 0 0 0 0
          0 0 0 0 0 0
          0 0 0 0 0 0
          0 0 0 0 0 0
          0 0 0 0 0 0
          0 0 0 0 0 0
          0 0 0 0 0 0
          0 0 0 0 0 0
          0 0 0 0 0 0
          0 0 0 0 0 0
          0 0 0 0 0 0
          0 0 0 0 0 0
          0 0 0 0 0 0
          0 0 0 0 0 0
          0 0 0 0 0 0
          0 0 0 0 0 0
          0 0 0 0 0 0
          0 0 0 0 0 0
          0 0 0 0 0 0
          0 0 0 0 0 0
          0 0 0 0 0 0
          0 0 0 0 0 0
          0 0 0 0 0 0
          0 0 0 0 0 0
          0 0 0 0 0 0
          0 0 0 0 0 0
          0 0 0 0 0 0
          0 0 0 0 0 0
          0 0 0 0 0 0
          0 0 0 0 0 0
          0 0 0 0 0 0
          0 0 0 0 0 0
          0 0 0 0 0 0
          0 0 0 0 0 0
          0 0 0 0 0 0
          0 0 0 0 0 0
          0 0 0 0 0 0
          0 0 0 0 0 0
          0 0 0 0 0 0
          0 0 0 0 0 0
          0 0 0 0 0 0
          0 0 0 0 0 0
          0 0 0 0 0 0
          0 0 0 0 0 0
          0 0 0 0 0 0
          0 0 0 0 0 0
          0 0 0 0 0 0
          0 0 0 0 0 0
          0 0 0 0 0 0
          0 0 0 0 0 0
          0 0 0 0 0 0
          0 0 0 0 0 0
          0 0 0 0 0 0
          0 0 0 0 0 0
          0 0 0 0 0 0
          0 0 0 0 0 0
          0 0 0 0 0 0
          0 0 0 0 0 0
          0 0 0 0 0 0
          0 0 0 0 0 0
          0 0 0 0 0 0
          0 0 0 0 0 0
          0 0 0 0 0 0
          0 0 0 0 0 0
          0 0 0 0 0 0
          0 0 0 0 0 0
          0 0 0 0 0 0
          0 0 0 0 0 0
          0 0 0 0 0 0
          0 0 0 0 0 0
          0 0 0 0 0 0
          0 0 0 0 0 0
          0 0 0 0 0 0
          0 0 0 0 0 0
          0 0 0 0 0 0
          0 0 0 0 0 0
          0 0 0 0 0 0
          0 0 0 0 0 0
          0 0 0 0 0 0
          0 0 0 0 0 0
          0 0 0 0 0 0
          0 0 0 0 0 0
          0 0 0 0 0 0
          0 0 0 0 0 0
          0 0 0 0 0 0
          0 0 0 0 0 0
          0 0 0 0 0 0
          0 0 0 0 0 0
          0 0 0 0 0 0
          0 0 0 0 0 0
          0 0 0 0 0 0
          0 0 0 0 0 0
          0 0 0 0 0 0
          0 0 0 0 0 0
          0 0 0 0 0 0
          0 0 0 0 0 0
          0 0 0 0 0 0
          0 0 0 0 0 0
          0 0 0 0 0 0
          0 0 0 0 0 0
          0 0 0 0 0 0
          0 0 0 0 0 0
          0 0 0 0 0 0
          0 0 0 0 0 0
          0 0 0 0 0 0
          0 0 0 0 0 0
          0 0 0 0 0 0
          0 0 0 0 0 0
          0 0 0 0 0 0
          0 0 0 0 0 0
          0 0 0 0 0 0
          0 0 0 0 0 0
          0 0 0 0 0 0
          0 0 0 0 0 0
          0 0 0 0 0 0
          0 0 0 0 0 0
          0 0 0 0 0 0
          0 0 0 0 0 0
          0 0 0 0 0 0
          0 0 0 0 0 0
          0 0 0 0 0 0
          0 0 0 0 0 0
          0 0 0 0 0 0
          0 0 0 0 0 0
          0 0 0 0 0 0
          0 0 0 0 0 0
          0 0 0 0 0 0
          0 0 0 0 0 0
          0 0 0 0 0 0
          0 0 0 0 0 0
          0 0 0 0 0 0
          0 0 0 0 0 0
          0 0 0 0 0 0
          0 0 0 0 0 0
          0 0 0 0 0 0
          0 0 0 0 0 0
          0 0 0 0 0 0
          0 0 0 0 0 0
          0 0 0 0 0 0
          0 0 0 0 0 0
          0 0 0 0 0 0
          0 0 0 0 0 0
          0 0 0 0 0 0
          0 0 0 0 0 0
          0 0 0 0 0 0
          0 0 0 0 0 0
          0 0 0 0 0 0
          0 0 0 0 0 0
          0 0 0 0 0 0
          0 0 0 0 0 0
          0 0 0 0 0 0
          0 0 0 0 0 0
          0 0 0 0 0 0
          0 0 0 0 0 0
          0 0 0 0 0 0
          0 0 0 0 0 0
          0 0 0 0 0 0
          0 0 0 0 0 0
          0 0 0 0 0 0
          0 0 0 0 0 0
          0 0 0 0 0 0
          0 0 0 0 0 0
          0 0 0 0 0 0
          0 0 0 0 0 0
          0 0 0 0 0 0
          0 0 0 0 0 0
          0 0 0 0 0 0
          0 0 0 0 0 0
          0 0 0 0 0 0
          0 0 0 0 0 0
          0 0 0 0 0 0
          0 0 0 0 0 0
          0 0 0 0 0 0
          0 0 0 0 0 0
          0 0 0 0 0 0
          0 0 0 0 0 0
          0 0 0 0 0 0
          0 0 0 0 0 0
          0 0 0 0 0 0
          0 0 0 0 0 0
          0 0 0 0 0 0
          0 0 0 0 0 0
          0 0 0 0 0 0
          0 0 0 0 0 0
          0 0 0 0 0 0
          0 0 0 0 0 0
          0 0 0 0 0 0
          0 0 0 0 0 0
          0 0 0 0 0 0
          0 0 0 0 0 0
          0 0 0 0 0 0
          0 0 0 0 0 0
          0 0 0 0 0 0
          0 0 0 0 0 0
          0 0 0 0 0 0
          0 0 0 0 0 0
          0 0 0 0 0 0
          0 0 0 0 0 0
          0 0 0 0 0 0
          0 0 0 0 0 0
          0 0 0 0 0 0
          0 0 0 0 0 0
          0 0 0 0 0 0
          0 0 0 0 0 0
          0 0 0 0 0 0
          0 0 0 0 0 0
          0 0 0 0 0 0
          0 0 0 0 0 0
          0 0 0 0 0 0
          0 0 0 0 0 0
          0 0 0 0 0 0
          0 0 0 0 0 0
          0 0 0 0 0 0
          0 0 0 0 0 0
          0 0 0 0 0 0
          0 0 0 0 0 0
          0 0 0 0 0 0
          0 0 0 0 0 0
          0 0 0 0 0 0
          0 0 0 0 0 0
          0 0 0 0 0 0
          0 0 0 0 0 0
          0 0 0 0 0 0
          0 0 0 0 0 0
          0 0 0 0 0 0
          0 0 0 0 0 0
          0 0 0 0 0 0
          0 0 0 0 0 0
          0 0 0 0 0 0
          0 0 0 0 0 0
          0 0 0 0 0 0
          0 0 0 0 0 0
          0 0 0 0 0 0
          0 0 0 0 0 0
          0 0 0 0 0 0
          0 0 0 0 0 0
          0 0 0 0 0 0
          0 0 0 0 0 0
          0 0 0 0 0 0
          0 0 0 0 0 0
          0 0 0 0 0 0
          0 0 0 0 0 0
          0 0 0 0 0 0
          0 0 0 0 0 0
          0 0 0 0 0 0
          0 0 0 0 0 0
          0 0 0 0 0 0
          0 0 0 0 0 0
          0 0 0 0 0 0
          0 0 0 0 0 0
          0 0 0 0 0 0
          0 0 0 0 0 0
          0 0 0 0 0 0
          0 0 0 0 0 0
          0 0 0 0 0 0
          0 0 0 0 0 0
          0 0 0 0 0 0
          0 0 0 0 0 0
          0 0 0 0 0 0
          0 0 0 0 0 0
          0 0 0 0 0 0
          0 0 0 0 0 0
          0 0 0 0 0 0
          0 0 0 0 0 0
          0 0 0 0 0 0
          0 0 0 0 0 0
          0 0 0 0 0 0
          0 0 0 0 0 0
          0 0 0 0 0 0
          0 0 0 0 0 0
          0 0 0 0 0 0
          0 0 0 0 0 0
          0 0 0 0 0 0
          0 0 0 0 0 0
          0 0 0 0 0 0
          0 0 0 0 0 0
          0 0 0 0 0 0
          0 0 0 0 0 0
          0 0 0 0 0 0
          0 0 0 0 0 0
          0 0 0 0 0 0
          0 0 0 0 0 0
          0 0 0 0 0 0
          0 0 0 0 0 0
          0 0 0 0 0 0
          0 0 0 0 0 0
          0 0 0 0 0 0
          0 0 0 0 0 0
          0 0 0 0 0 0
          0 0 0 0 0 0
          0 0 0 0 0 0
          0 0 0 0 0 0
          0 0 0 0 0 0
          0 0 0 0 0 0
          0 0 0 0 0 0
          0 0 0 0 0 0
          0 0 0 0 0 0
          0 0 0 0 0 0
          0 0 0 0 0 0
          0 0 0 0 0 0
          0 0 0 0 0 0
          0 0 0 0 0 0
          0 0 0 0 0 0
          0 0 0 0 0 0
          0 0 0 0 0 0
          0 0 0 0 0 0
          0 0 0 0 0 0
          0 0 0 0 0 0
          0 0 0 0 0 0
          0 0 0 0 0 0
          0 0 0 0 0 0
          0 0 0 0 0 0
          0 0 0 0 0 0
          0 0 0 0 0 0
          0 0 0 0 0 0
          0 0 0 0 0 0
          0 0 0 0 0 0
          0 0 0 0 0 0
          0 0 0 0 0 0
          0 0 0 0 0 0
          0 0 0 0 0 0
          0 0 0 0 0 0
          0 0 0 0 0 0
          0 0 0 0 0 0
          0 0 0 0 0 0
          0 0 0 0 0 0
          0 0 0 0 0 0
          0 0 0 0 0 0
          0 0 0 0 0 0
          0 0 0 0 0 0
          0 0 0 0 0 0
          0 0 0 0 0 0
          0 0 0 0 0 0
          0 0 0 0 0 0
          0 0 0 0 0 0
          0 0 0 0 0 0
          0 0 0 0 0 0
          0 0 0 0 0 0
          0 0 0 0 0 0
          0 0 0 0 0 0
          0 0 0 0 0 0
          0 0 0 0 0 0
          0 0 0 0 0 0
          0 0 0 0 0 0
          0 0 0 0 0 0
          0 0 0 0 0 0
          0 0 0 0 0 0
          0 0 0 0 0 0
          0 0 0 0 0 0
          0 0 0 0 0 0
          0 0 0 0 0 0
          0 0 0 0 0 0
          0 0 0 0 0 0
          0 0 0 0 0 0
          0 0 0 0 0 0
          0 0 0 0 0 0
          0 0 0 0 0 0
          0 0 0 0 0 0
          0 0 0 0 0 0
          0 0 0 0 0 0
          0 0 0 0 0 0
          0 0 0 0 0 0
          0 0 0 0 0 0
          0 0 0 0 0 0
          0 0 0 0 0 0
          0 0 0 0 0 0
          0 0 0 0 0 0
          0 0 0 0 0 0
          0 0 0 0 0 0
          0 0 0 0 0 0
          0 0 0 0 0 0
          0 0 0 0 0 0
          0 0 0 0 0 0
          0 0 0 0 0 0
          0 0 0 0 0 0
          0 0 0 0 0 0
          0 0 0 0 0 0
          0 0 0 0 0 0
          0 0 0 0 0 0
          0 0 0 0 0 0
          0 0 0 0 0 0
          0 0 0 0 0 0
          0 0 0 0 0 0
          0 0 0 0 0 0
          0 0 0 0 0 0
          0 0 0 0 0 0
          0 0 0 0 0 0
          0 0 0 0 0 0
          0 0 0 0 0 0
          0 0 0 0 0 0
          0 0 0 0 0 0
          0 0 0 0 0 0
          0 0 0 0 0 0
          0 0 0 0 0 0
          0 0 0 0 0 0
          0 0 0 0 0 0
          0 0 0 0 0 0
          0 0 0 0 0 0
          0 0 0 0 0 0
          0 0 0 0 0 0
          0 0 0 0 0 0
          0 0 0 0 0 0
          0 0 0 0 0 0
          0 0 0 0 0 0
          0 0 0 0 0 0
          0 0 0 0 0 0
          0 0 0 0 0 0
          0 0 0 0 0 0
          0 0 0 0 0 0
          0 0 0 0 0 0
          0 0 0 0 0 0
          0 0 0 0 0 0
          0 0 0 0 0 0
          0 0 0 0 0 0
          0 0 0 0 0 0
          0 0 0 0 0 0
          0 0 0 0 0 0
          0 0 0 0 0 0
          0 0 0 0 0 0
          0 0 0 0 0 0
          0 0 0 0 0 0
          0 0 0 0 0 0
          0 0 0 0 0 0
          0 0 0 0 0 0
          0 0 0 0 0 0
          0 0 0 0 0 0
          0 0 0 0 0 0
          0 0 0 0 0 0
          0 0 0 0 0 0
          0 0 0 0 0 0
          0 0 0 0 0 0
          0 0 0 0 0 0
          0 0 0 0 0 0
          0 0 0 0 0 0
          0 0 0 0 0 0
          0 0 0 0 0 0
          0 0 0 0 0 0
          0 0 0 0 0 0
          0 0 0 0 0 0
          0 0 0 0 0 0
          0 0 0 0 0 0
          0 0 0 0 0 0
          0 0 0 0 0 0
          0 0 0 0 0 0
          0 0 0 0 0 0
          0 0 0 0 0 0
          0 0 0 0 0 0
          0 0 0 0 0 0
          0 0 0 0 0 0
          0 0 0 0 0 0
          0 0 0 0 0 0
          0 0 0 0 0 0
          0 0 0 0 0 0
          0 0 0 0 0 0
          0 0 0 0 0 0
          0 0 0 0 0 0
          0 0 0 0 0 0
          0 0 0 0 0 0
          0 0 0 0 0 0
          0 0 0 0 0 0
          0 0 0 0 0 0
          0 0 0 0 0 0
          0 0 0 0 0 0
          0 0 0 0 0 0
          0 0 0 0 0 0
          0 0 0 0 0 0
          0 0 0 0 0 0
          0 0 0 0 0 0
          0 0 0 0 0 0
          0 0 0 0 0 0
          0 0 0 0 0 0
          0 0 0 0 0 0
          0 0 0 0 0 0
          0 0 0 0 0 0
          0 0 0 0 0 0
          0 0 0 0 0 0
          0 0 0 0 0 0
          0 0 0 0 0 0
          0 0 0 0 0 0
          0 0 0 0 0 0
          0 0 0 0 0 0
          0 0 0 0 0 0
          0 0 0 0 0 0
          0 0 0 0 0 0
          0 0 0 0 0 0
          0 0 0 0 0 0
          0 0 0 0 0 0
          0 0 0 0 0 0
          0 0 0 0 0 0
          0 0 0 0 0 0
          0 0 0 0 0 0
          0 0 0 0 0 0
          0 0 0 0 0 0
          0 0 0 0 0 0
          0 0 0 0 0 0
          0 0 0 0 0 0
          0 0 0 0 0 0
          0 0 0 0 0 0
          0 0 0 0 0 0
          0 0 0 0 0 0
          0 0 0 0 0 0
          0 0 0 0 0 0
          0 0 0 0 0 0
          0 0 0 0 0 0
          0 0 0 0 0 0
          0 0 0 0 0 0
          0 0 0 0 0 0
          0 0 0 0 0 0
          0 0 0 0 0 0
          0 0 0 0 0 0
          0 0 0 0 0 0
          0 0 0 0 0 0
          0 0 0 0 0 0
          0 0 0 0 0 0
          0 0 0 0 0 0
          0 0 0 0 0 0
          0 0 0 0 0 0
          0 0 0 0 0 0
          0 0 0 0 0 0
          0 0 0 0 0 0
          0 0 0 0 0 0
          0 0 0 0 0 0
          0 0 0 0 0 0
          0 0 0 0 0 0
          0 0 0 0 0 0
          0 0 0 0 0 0
          0 0 0 0 0 0
          0 0 0 0 0 0
          0 0 0 0 0 0
          0 0 0 0 0 0
          0 0 0 0 0 0
          0 0 0 0 0 0
          0 0 0 0 0 0
          0 0 0 0 0 0
          0 0 0 0 0 0
          0 0 0 0 0 0
          0 0 0 0 0 0
          0 0 0 0 0 0
          0 0 0 0 0 0
          0 0 0 0 0 0
          0 0 0 0 0 0
          0 0 0 0 0 0
          0 0 0 0 0 0
          0 0 0 0 0 0
          0 0 0 0 0 0
          0 0 0 0 0 0
          0 0 0 0 0 0
          0 0 0 0 0 0
          0 0 0 0 0 0
          0 0 0 0 0 0
          0 0 0 0 0 0
          0 0 0 0 0 0
          0 0 0 0 0 0
          0 0 0 0 0 0
          0 0 0 0 0 0
          0 0 0 0 0 0
          0 0 0 0 0 0
          0 0 0 0 0 0
          0 0 0 0 0 0
          0 0 0 0 0 0
          0 0 0 0 0 0
          0 0 0 0 0 0
          0 0 0 0 0 0
          0 0 0 0 0 0
          0 0 0 0 0 0
          0 0 0 0 0 0
          0 0 0 0 0 0
          0 0 0 0 0 0
          0 0 0 0 0 0
          0 0 0 0 0 0
          0 0 0 0 0 0
          0 0 0 0 0 0
          0 0 0 0 0 0
          0 0 0 0 0 0
          0 0 0 0 0 0
          0 0 0 0 0 0
          0 0 0 0 0 0
          0 0 0 0 0 0
          0 0 0 0 0 0
          0 0 0 0 0 0
          0 0 0 0 0 0
          0 0 0 0 0 0
          0 0 0 0 0 0
          0 0 0 0 0 0
          0 0 0 0 0 0
          0 0 0 0 0 0
          0 0 0 0 0 0
          0 0 0 0 0 0
          0 0 0 0 0 0
          0 0 0 0 0 0
          0 0 0 0 0 0
          0 0 0 0 0 0
          0 0 0 0 0 0
          0 0 0 0 0 0
          0 0 0 0 0 0
          0 0 0 0 0 0
          0 0 0 0 0 0
          0 0 0 0 0 0
          0 0 0 0 0 0
          0 0 0 0 0 0
          0 0 0 0 0 0
          0 0 0 0 0 0
          0 0 0 0 0 0
          0 0 0 0 0 0
          0 0 0 0 0 0
          0 0 0 0 0 0
          0 0 0 0 0 0
          0 0 0 0 0 0
          0 0 0 0 0 0
          0 0 0 0 0 0
          0 0 0 0 0 0
          0 0 0 0 0 0
          0 0 0 0 0 0
          0 0 0 0 0 0
          0 0 0 0 0 0
          0 0 0 0 0 0
          0 0 0 0 0 0
          0 0 0 0 0 0
          0 0 0 0 0 0
          0 0 0 0 0 0
          0 0 0 0 0 0
          0 0 0 0 0 0
          0 0 0 0 0 0
          0 0 0 0 0 0
          0 0 0 0 0 0
          0 0 0 0 0 0
          0 0 0 0 0 0
          0 0 0 0 0 0
          0 0 0 0 0 0
          0 0 0 0 0 0
          0 0 0 0 0 0
          0 0 0 0 0 0
          0 0 0 0 0 0
          0 0 0 0 0 0
          0 0 0 0 0 0
          0 0 0 0 0 0
          0 0 0 0 0 0
          0 0 0 0 0 0
          0 0 0 0 0 0
          0 0 0 0 0 0
          0 0 0 0 0 0
          0 0 0 0 0 0
          0 0 0 0 0 0
          0 0 0 0 0 0
          0 0 0 0 0 0
          0 0 0 0 0 0
          0 0 0 0 0 0
          0 0 0 0 0 0
          0 0 0 0 0 0
          0 0 0 0 0 0
          0 0 0 0 0 0
          0 0 0 0 0 0
          0 0 0 0 0 0
          0 0 0 0 0 0
          0 0 0 0 0 0
          0 0 0 0
        </DataArray>
        <DataArray type="Float64" Name="u1" format="ascii" RangeMin="0" RangeMax="0">
          0 0 0 0 0 0
          0 0 0 0 0 0
          0 0 0 0 0 0
          0 0 0 0 0 0
          0 0 0 0 0 0
          0 0 0 0 0 0
          0 0 0 0 0 0
          0 0 0 0 0 0
          0 0 0 0 0 0
          0 0 0 0 0 0
          0 0 0 0 0 0
          0 0 0 0 0 0
          0 0 0 0 0 0
          0 0 0 0 0 0
          0 0 0 0 0 0
          0 0 0 0 0 0
          0 0 0 0 0 0
          0 0 0 0 0 0
          0 0 0 0 0 0
          0 0 0 0 0 0
          0 0 0 0 0 0
          0 0 0 0 0 0
          0 0 0 0 0 0
          0 0 0 0 0 0
          0 0 0 0 0 0
          0 0 0 0 0 0
          0 0 0 0 0 0
          0 0 0 0 0 0
          0 0 0 0 0 0
          0 0 0 0 0 0
          0 0 0 0 0 0
          0 0 0 0 0 0
          0 0 0 0 0 0
          0 0 0 0 0 0
          0 0 0 0 0 0
          0 0 0 0 0 0
          0 0 0 0 0 0
          0 0 0 0 0 0
          0 0 0 0 0 0
          0 0 0 0 0 0
          0 0 0 0 0 0
          0 0 0 0 0 0
          0 0 0 0 0 0
          0 0 0 0 0 0
          0 0 0 0 0 0
          0 0 0 0 0 0
          0 0 0 0 0 0
          0 0 0 0 0 0
          0 0 0 0 0 0
          0 0 0 0 0 0
          0 0 0 0 0 0
          0 0 0 0 0 0
          0 0 0 0 0 0
          0 0 0 0 0 0
          0 0 0 0 0 0
          0 0 0 0 0 0
          0 0 0 0 0 0
          0 0 0 0 0 0
          0 0 0 0 0 0
          0 0 0 0 0 0
          0 0 0 0 0 0
          0 0 0 0 0 0
          0 0 0 0 0 0
          0 0 0 0 0 0
          0 0 0 0 0 0
          0 0 0 0 0 0
          0 0 0 0 0 0
          0 0 0 0 0 0
          0 0 0 0 0 0
          0 0 0 0 0 0
          0 0 0 0 0 0
          0 0 0 0 0 0
          0 0 0 0 0 0
          0 0 0 0 0 0
          0 0 0 0 0 0
          0 0 0 0 0 0
          0 0 0 0 0 0
          0 0 0 0 0 0
          0 0 0 0 0 0
          0 0 0 0 0 0
          0 0 0 0 0 0
          0 0 0 0 0 0
          0 0 0 0 0 0
          0 0 0 0 0 0
          0 0 0 0 0 0
          0 0 0 0 0 0
          0 0 0 0 0 0
          0 0 0 0 0 0
          0 0 0 0 0 0
          0 0 0 0 0 0
          0 0 0 0 0 0
          0 0 0 0 0 0
          0 0 0 0 0 0
          0 0 0 0 0 0
          0 0 0 0 0 0
          0 0 0 0 0 0
          0 0 0 0 0 0
          0 0 0 0 0 0
          0 0 0 0 0 0
          0 0 0 0 0 0
          0 0 0 0 0 0
          0 0 0 0 0 0
          0 0 0 0 0 0
          0 0 0 0 0 0
          0 0 0 0 0 0
          0 0 0 0 0 0
          0 0 0 0 0 0
          0 0 0 0 0 0
          0 0 0 0 0 0
          0 0 0 0 0 0
          0 0 0 0 0 0
          0 0 0 0 0 0
          0 0 0 0 0 0
          0 0 0 0 0 0
          0 0 0 0 0 0
          0 0 0 0 0 0
          0 0 0 0 0 0
          0 0 0 0 0 0
          0 0 0 0 0 0
          0 0 0 0 0 0
          0 0 0 0 0 0
          0 0 0 0 0 0
          0 0 0 0 0 0
          0 0 0 0 0 0
          0 0 0 0 0 0
          0 0 0 0 0 0
          0 0 0 0 0 0
          0 0 0 0 0 0
          0 0 0 0 0 0
          0 0 0 0 0 0
          0 0 0 0 0 0
          0 0 0 0 0 0
          0 0 0 0 0 0
          0 0 0 0 0 0
          0 0 0 0 0 0
          0 0 0 0 0 0
          0 0 0 0 0 0
          0 0 0 0 0 0
          0 0 0 0 0 0
          0 0 0 0 0 0
          0 0 0 0 0 0
          0 0 0 0 0 0
          0 0 0 0 0 0
          0 0 0 0 0 0
          0 0 0 0 0 0
          0 0 0 0 0 0
          0 0 0 0 0 0
          0 0 0 0 0 0
          0 0 0 0 0 0
          0 0 0 0 0 0
          0 0 0 0 0 0
          0 0 0 0 0 0
          0 0 0 0 0 0
          0 0 0 0 0 0
          0 0 0 0 0 0
          0 0 0 0 0 0
          0 0 0 0 0 0
          0 0 0 0 0 0
          0 0 0 0 0 0
          0 0 0 0 0 0
          0 0 0 0 0 0
          0 0 0 0 0 0
          0 0 0 0 0 0
          0 0 0 0 0 0
          0 0 0 0 0 0
          0 0 0 0 0 0
          0 0 0 0 0 0
          0 0 0 0 0 0
          0 0 0 0 0 0
          0 0 0 0 0 0
          0 0 0 0 0 0
          0 0 0 0 0 0
          0 0 0 0 0 0
          0 0 0 0 0 0
          0 0 0 0 0 0
          0 0 0 0 0 0
          0 0 0 0 0 0
          0 0 0 0 0 0
          0 0 0 0 0 0
          0 0 0 0 0 0
          0 0 0 0 0 0
          0 0 0 0 0 0
          0 0 0 0 0 0
          0 0 0 0 0 0
          0 0 0 0 0 0
          0 0 0 0 0 0
          0 0 0 0 0 0
          0 0 0 0 0 0
          0 0 0 0 0 0
          0 0 0 0 0 0
          0 0 0 0 0 0
          0 0 0 0 0 0
          0 0 0 0 0 0
          0 0 0 0 0 0
          0 0 0 0 0 0
          0 0 0 0 0 0
          0 0 0 0 0 0
          0 0 0 0 0 0
          0 0 0 0 0 0
          0 0 0 0 0 0
          0 0 0 0 0 0
          0 0 0 0 0 0
          0 0 0 0 0 0
          0 0 0 0 0 0
          0 0 0 0 0 0
          0 0 0 0 0 0
          0 0 0 0 0 0
          0 0 0 0 0 0
          0 0 0 0 0 0
          0 0 0 0 0 0
          0 0 0 0 0 0
          0 0 0 0 0 0
          0 0 0 0 0 0
          0 0 0 0 0 0
          0 0 0 0 0 0
          0 0 0 0 0 0
          0 0 0 0 0 0
          0 0 0 0 0 0
          0 0 0 0 0 0
          0 0 0 0 0 0
          0 0 0 0 0 0
          0 0 0 0 0 0
          0 0 0 0 0 0
          0 0 0 0 0 0
          0 0 0 0 0 0
          0 0 0 0 0 0
          0 0 0 0 0 0
          0 0 0 0 0 0
          0 0 0 0 0 0
          0 0 0 0 0 0
          0 0 0 0 0 0
          0 0 0 0 0 0
          0 0 0 0 0 0
          0 0 0 0 0 0
          0 0 0 0 0 0
          0 0 0 0 0 0
          0 0 0 0 0 0
          0 0 0 0 0 0
          0 0 0 0 0 0
          0 0 0 0 0 0
          0 0 0 0 0 0
          0 0 0 0 0 0
          0 0 0 0 0 0
          0 0 0 0 0 0
          0 0 0 0 0 0
          0 0 0 0 0 0
          0 0 0 0 0 0
          0 0 0 0 0 0
          0 0 0 0 0 0
          0 0 0 0 0 0
          0 0 0 0 0 0
          0 0 0 0 0 0
          0 0 0 0 0 0
          0 0 0 0 0 0
          0 0 0 0 0 0
          0 0 0 0 0 0
          0 0 0 0 0 0
          0 0 0 0 0 0
          0 0 0 0 0 0
          0 0 0 0 0 0
          0 0 0 0 0 0
          0 0 0 0 0 0
          0 0 0 0 0 0
          0 0 0 0 0 0
          0 0 0 0 0 0
          0 0 0 0 0 0
          0 0 0 0 0 0
          0 0 0 0 0 0
          0 0 0 0 0 0
          0 0 0 0 0 0
          0 0 0 0 0 0
          0 0 0 0 0 0
          0 0 0 0 0 0
          0 0 0 0 0 0
          0 0 0 0 0 0
          0 0 0 0 0 0
          0 0 0 0 0 0
          0 0 0 0 0 0
          0 0 0 0 0 0
          0 0 0 0 0 0
          0 0 0 0 0 0
          0 0 0 0 0 0
          0 0 0 0 0 0
          0 0 0 0 0 0
          0 0 0 0 0 0
          0 0 0 0 0 0
          0 0 0 0 0 0
          0 0 0 0 0 0
          0 0 0 0 0 0
          0 0 0 0 0 0
          0 0 0 0 0 0
          0 0 0 0 0 0
          0 0 0 0 0 0
          0 0 0 0 0 0
          0 0 0 0 0 0
          0 0 0 0 0 0
          0 0 0 0 0 0
          0 0 0 0 0 0
          0 0 0 0 0 0
          0 0 0 0 0 0
          0 0 0 0 0 0
          0 0 0 0 0 0
          0 0 0 0 0 0
          0 0 0 0 0 0
          0 0 0 0 0 0
          0 0 0 0 0 0
          0 0 0 0 0 0
          0 0 0 0 0 0
          0 0 0 0 0 0
          0 0 0 0 0 0
          0 0 0 0 0 0
          0 0 0 0 0 0
          0 0 0 0 0 0
          0 0 0 0 0 0
          0 0 0 0 0 0
          0 0 0 0 0 0
          0 0 0 0 0 0
          0 0 0 0 0 0
          0 0 0 0 0 0
          0 0 0 0 0 0
          0 0 0 0 0 0
          0 0 0 0 0 0
          0 0 0 0 0 0
          0 0 0 0 0 0
          0 0 0 0 0 0
          0 0 0 0 0 0
          0 0 0 0 0 0
          0 0 0 0 0 0
          0 0 0 0 0 0
          0 0 0 0 0 0
          0 0 0 0 0 0
          0 0 0 0 0 0
          0 0 0 0 0 0
          0 0 0 0 0 0
          0 0 0 0 0 0
          0 0 0 0 0 0
          0 0 0 0 0 0
          0 0 0 0 0 0
          0 0 0 0 0 0
          0 0 0 0 0 0
          0 0 0 0 0 0
          0 0 0 0 0 0
          0 0 0 0 0 0
          0 0 0 0 0 0
          0 0 0 0 0 0
          0 0 0 0 0 0
          0 0 0 0 0 0
          0 0 0 0 0 0
          0 0 0 0 0 0
          0 0 0 0 0 0
          0 0 0 0 0 0
          0 0 0 0 0 0
          0 0 0 0 0 0
          0 0 0 0 0 0
          0 0 0 0 0 0
          0 0 0 0 0 0
          0 0 0 0 0 0
          0 0 0 0 0 0
          0 0 0 0 0 0
          0 0 0 0 0 0
          0 0 0 0 0 0
          0 0 0 0 0 0
          0 0 0 0 0 0
          0 0 0 0 0 0
          0 0 0 0 0 0
          0 0 0 0 0 0
          0 0 0 0 0 0
          0 0 0 0 0 0
          0 0 0 0 0 0
          0 0 0 0 0 0
          0 0 0 0 0 0
          0 0 0 0 0 0
          0 0 0 0 0 0
          0 0 0 0 0 0
          0 0 0 0 0 0
          0 0 0 0 0 0
          0 0 0 0 0 0
          0 0 0 0 0 0
          0 0 0 0 0 0
          0 0 0 0 0 0
          0 0 0 0 0 0
          0 0 0 0 0 0
          0 0 0 0 0 0
          0 0 0 0 0 0
          0 0 0 0 0 0
          0 0 0 0 0 0
          0 0 0 0 0 0
          0 0 0 0 0 0
          0 0 0 0 0 0
          0 0 0 0 0 0
          0 0 0 0 0 0
          0 0 0 0 0 0
          0 0 0 0 0 0
          0 0 0 0 0 0
          0 0 0 0 0 0
          0 0 0 0 0 0
          0 0 0 0 0 0
          0 0 0 0 0 0
          0 0 0 0 0 0
          0 0 0 0 0 0
          0 0 0 0 0 0
          0 0 0 0 0 0
          0 0 0 0 0 0
          0 0 0 0 0 0
          0 0 0 0 0 0
          0 0 0 0 0 0
          0 0 0 0 0 0
          0 0 0 0 0 0
          0 0 0 0 0 0
          0 0 0 0 0 0
          0 0 0 0 0 0
          0 0 0 0 0 0
          0 0 0 0 0 0
          0 0 0 0 0 0
          0 0 0 0 0 0
          0 0 0 0 0 0
          0 0 0 0 0 0
          0 0 0 0 0 0
          0 0 0 0 0 0
          0 0 0 0 0 0
          0 0 0 0 0 0
          0 0 0 0 0 0
          0 0 0 0 0 0
          0 0 0 0 0 0
          0 0 0 0 0 0
          0 0 0 0 0 0
          0 0 0 0 0 0
          0 0 0 0 0 0
          0 0 0 0 0 0
          0 0 0 0 0 0
          0 0 0 0 0 0
          0 0 0 0 0 0
          0 0 0 0 0 0
          0 0 0 0 0 0
          0 0 0 0 0 0
          0 0 0 0 0 0
          0 0 0 0 0 0
          0 0 0 0 0 0
          0 0 0 0 0 0
          0 0 0 0 0 0
          0 0 0 0 0 0
          0 0 0 0 0 0
          0 0 0 0 0 0
          0 0 0 0 0 0
          0 0 0 0 0 0
          0 0 0 0 0 0
          0 0 0 0 0 0
          0 0 0 0 0 0
          0 0 0 0 0 0
          0 0 0 0 0 0
          0 0 0 0 0 0
          0 0 0 0 0 0
          0 0 0 0 0 0
          0 0 0 0 0 0
          0 0 0 0 0 0
          0 0 0 0 0 0
          0 0 0 0 0 0
          0 0 0 0 0 0
          0 0 0 0 0 0
          0 0 0 0 0 0
          0 0 0 0 0 0
          0 0 0 0 0 0
          0 0 0 0 0 0
          0 0 0 0 0 0
          0 0 0 0 0 0
          0 0 0 0 0 0
          0 0 0 0 0 0
          0 0 0 0 0 0
          0 0 0 0 0 0
          0 0 0 0 0 0
          0 0 0 0 0 0
          0 0 0 0 0 0
          0 0 0 0 0 0
          0 0 0 0 0 0
          0 0 0 0 0 0
          0 0 0 0 0 0
          0 0 0 0 0 0
          0 0 0 0 0 0
          0 0 0 0 0 0
          0 0 0 0 0 0
          0 0 0 0 0 0
          0 0 0 0 0 0
          0 0 0 0 0 0
          0 0 0 0 0 0
          0 0 0 0 0 0
          0 0 0 0 0 0
          0 0 0 0 0 0
          0 0 0 0 0 0
          0 0 0 0 0 0
          0 0 0 0 0 0
          0 0 0 0 0 0
          0 0 0 0 0 0
          0 0 0 0 0 0
          0 0 0 0 0 0
          0 0 0 0 0 0
          0 0 0 0 0 0
          0 0 0 0 0 0
          0 0 0 0 0 0
          0 0 0 0 0 0
          0 0 0 0 0 0
          0 0 0 0 0 0
          0 0 0 0 0 0
          0 0 0 0 0 0
          0 0 0 0 0 0
          0 0 0 0 0 0
          0 0 0 0 0 0
          0 0 0 0 0 0
          0 0 0 0 0 0
          0 0 0 0 0 0
          0 0 0 0 0 0
          0 0 0 0 0 0
          0 0 0 0 0 0
          0 0 0 0 0 0
          0 0 0 0 0 0
          0 0 0 0 0 0
          0 0 0 0 0 0
          0 0 0 0 0 0
          0 0 0 0 0 0
          0 0 0 0 0 0
          0 0 0 0 0 0
          0 0 0 0 0 0
          0 0 0 0 0 0
          0 0 0 0 0 0
          0 0 0 0 0 0
          0 0 0 0 0 0
          0 0 0 0 0 0
          0 0 0 0 0 0
          0 0 0 0 0 0
          0 0 0 0 0 0
          0 0 0 0 0 0
          0 0 0 0 0 0
          0 0 0 0 0 0
          0 0 0 0 0 0
          0 0 0 0 0 0
          0 0 0 0 0 0
          0 0 0 0 0 0
          0 0 0 0 0 0
          0 0 0 0 0 0
          0 0 0 0 0 0
          0 0 0 0 0 0
          0 0 0 0 0 0
          0 0 0 0 0 0
          0 0 0 0 0 0
          0 0 0 0 0 0
          0 0 0 0 0 0
          0 0 0 0 0 0
          0 0 0 0 0 0
          0 0 0 0 0 0
          0 0 0 0 0 0
          0 0 0 0 0 0
          0 0 0 0 0 0
          0 0 0 0 0 0
          0 0 0 0 0 0
          0 0 0 0 0 0
          0 0 0 0 0 0
          0 0 0 0 0 0
          0 0 0 0 0 0
          0 0 0 0 0 0
          0 0 0 0 0 0
          0 0 0 0 0 0
          0 0 0 0 0 0
          0 0 0 0 0 0
          0 0 0 0 0 0
          0 0 0 0 0 0
          0 0 0 0 0 0
          0 0 0 0 0 0
          0 0 0 0 0 0
          0 0 0 0 0 0
          0 0 0 0 0 0
          0 0 0 0 0 0
          0 0 0 0 0 0
          0 0 0 0 0 0
          0 0 0 0 0 0
          0 0 0 0 0 0
          0 0 0 0 0 0
          0 0 0 0 0 0
          0 0 0 0 0 0
          0 0 0 0 0 0
          0 0 0 0 0 0
          0 0 0 0 0 0
          0 0 0 0 0 0
          0 0 0 0 0 0
          0 0 0 0 0 0
          0 0 0 0 0 0
          0 0 0 0 0 0
          0 0 0 0 0 0
          0 0 0 0 0 0
          0 0 0 0 0 0
          0 0 0 0 0 0
          0 0 0 0 0 0
          0 0 0 0 0 0
          0 0 0 0 0 0
          0 0 0 0 0 0
          0 0 0 0 0 0
          0 0 0 0 0 0
          0 0 0 0 0 0
          0 0 0 0 0 0
          0 0 0 0 0 0
          0 0 0 0 0 0
          0 0 0 0 0 0
          0 0 0 0 0 0
          0 0 0 0 0 0
          0 0 0 0 0 0
          0 0 0 0 0 0
          0 0 0 0 0 0
          0 0 0 0 0 0
          0 0 0 0 0 0
          0 0 0 0 0 0
          0 0 0 0 0 0
          0 0 0 0 0 0
          0 0 0 0 0 0
          0 0 0 0 0 0
          0 0 0 0 0 0
          0 0 0 0 0 0
          0 0 0 0 0 0
          0 0 0 0 0 0
          0 0 0 0 0 0
          0 0 0 0 0 0
          0 0 0 0 0 0
          0 0 0 0 0 0
          0 0 0 0 0 0
          0 0 0 0 0 0
          0 0 0 0 0 0
          0 0 0 0 0 0
          0 0 0 0 0 0
          0 0 0 0 0 0
          0 0 0 0 0 0
          0 0 0 0 0 0
          0 0 0 0 0 0
          0 0 0 0 0 0
          0 0 0 0 0 0
          0 0 0 0 0 0
          0 0 0 0 0 0
          0 0 0 0 0 0
          0 0 0 0 0 0
          0 0 0 0 0 0
          0 0 0 0 0 0
          0 0 0 0 0 0
          0 0 0 0 0 0
          0 0 0 0 0 0
          0 0 0 0 0 0
          0 0 0 0 0 0
          0 0 0 0 0 0
          0 0 0 0 0 0
          0 0 0 0 0 0
          0 0 0 0 0 0
          0 0 0 0 0 0
          0 0 0 0 0 0
          0 0 0 0 0 0
          0 0 0 0 0 0
          0 0 0 0 0 0
          0 0 0 0 0 0
          0 0 0 0 0 0
          0 0 0 0 0 0
          0 0 0 0 0 0
          0 0 0 0 0 0
          0 0 0 0 0 0
          0 0 0 0 0 0
          0 0 0 0 0 0
          0 0 0 0 0 0
          0 0 0 0 0 0
          0 0 0 0 0 0
          0 0 0 0 0 0
          0 0 0 0 0 0
          0 0 0 0 0 0
          0 0 0 0 0 0
          0 0 0 0 0 0
          0 0 0 0 0 0
          0 0 0 0 0 0
          0 0 0 0 0 0
          0 0 0 0 0 0
          0 0 0 0 0 0
          0 0 0 0 0 0
          0 0 0 0 0 0
          0 0 0 0 0 0
          0 0 0 0 0 0
          0 0 0 0 0 0
          0 0 0 0 0 0
          0 0 0 0 0 0
          0 0 0 0 0 0
          0 0 0 0 0 0
          0 0 0 0 0 0
          0 0 0 0 0 0
          0 0 0 0 0 0
          0 0 0 0 0 0
          0 0 0 0 0 0
          0 0 0 0 0 0
          0 0 0 0 0 0
          0 0 0 0 0 0
          0 0 0 0 0 0
          0 0 0 0 0 0
          0 0 0 0 0 0
          0 0 0 0 0 0
          0 0 0 0 0 0
          0 0 0 0 0 0
          0 0 0 0 0 0
          0 0 0 0 0 0
          0 0 0 0 0 0
          0 0 0 0 0 0
          0 0 0 0 0 0
          0 0 0 0 0 0
          0 0 0 0 0 0
          0 0 0 0 0 0
          0 0 0 0 0 0
          0 0 0 0 0 0
          0 0 0 0 0 0
          0 0 0 0 0 0
          0 0 0 0 0 0
          0 0 0 0 0 0
          0 0 0 0 0 0
          0 0 0 0 0 0
          0 0 0 0 0 0
          0 0 0 0 0 0
          0 0 0 0 0 0
          0 0 0 0 0 0
          0 0 0 0 0 0
          0 0 0 0 0 0
          0 0 0 0 0 0
          0 0 0 0 0 0
          0 0 0 0 0 0
          0 0 0 0 0 0
          0 0 0 0 0 0
          0 0 0 0 0 0
          0 0 0 0 0 0
          0 0 0 0 0 0
          0 0 0 0 0 0
          0 0 0 0 0 0
          0 0 0 0 0 0
          0 0 0 0 0 0
          0 0 0 0 0 0
          0 0 0 0 0 0
          0 0 0 0 0 0
          0 0 0 0 0 0
          0 0 0 0 0 0
          0 0 0 0 0 0
          0 0 0 0 0 0
          0 0 0 0 0 0
          0 0 0 0 0 0
          0 0 0 0 0 0
          0 0 0 0 0 0
          0 0 0 0 0 0
          0 0 0 0 0 0
          0 0 0 0 0 0
          0 0 0 0 0 0
          0 0 0 0 0 0
          0 0 0 0 0 0
          0 0 0 0 0 0
          0 0 0 0 0 0
          0 0 0 0 0 0
          0 0 0 0 0 0
          0 0 0 0 0 0
          0 0 0 0 0 0
          0 0 0 0 0 0
          0 0 0 0 0 0
          0 0 0 0 0 0
          0 0 0 0 0 0
          0 0 0 0 0 0
          0 0 0 0 0 0
          0 0 0 0 0 0
          0 0 0 0 0 0
          0 0 0 0 0 0
          0 0 0 0 0 0
          0 0 0 0 0 0
          0 0 0 0 0 0
          0 0 0 0 0 0
          0 0 0 0 0 0
          0 0 0 0 0 0
          0 0 0 0 0 0
          0 0 0 0 0 0
          0 0 0 0 0 0
          0 0 0 0 0 0
          0 0 0 0 0 0
          0 0 0 0 0 0
          0 0 0 0 0 0
          0 0 0 0 0 0
          0 0 0 0 0 0
          0 0 0 0 0 0
          0 0 0 0 0 0
          0 0 0 0 0 0
          0 0 0 0 0 0
          0 0 0 0 0 0
          0 0 0 0 0 0
          0 0 0 0 0 0
          0 0 0 0 0 0
          0 0 0 0 0 0
          0 0 0 0 0 0
          0 0 0 0 0 0
          0 0 0 0 0 0
          0 0 0 0 0 0
          0 0 0 0 0 0
          0 0 0 0 0 0
          0 0 0 0 0 0
          0 0 0 0 0 0
          0 0 0 0 0 0
          0 0 0 0 0 0
          0 0 0 0 0 0
          0 0 0 0 0 0
          0 0 0 0 0 0
          0 0 0 0 0 0
          0 0 0 0 0 0
          0 0 0 0 0 0
          0 0 0 0 0 0
          0 0 0 0 0 0
          0 0 0 0 0 0
          0 0 0 0 0 0
          0 0 0 0 0 0
          0 0 0 0 0 0
          0 0 0 0 0 0
          0 0 0 0 0 0
          0 0 0 0 0 0
          0 0 0 0 0 0
          0 0 0 0 0 0
          0 0 0 0 0 0
          0 0 0 0 0 0
          0 0 0 0 0 0
          0 0 0 0 0 0
          0 0 0 0 0 0
          0 0 0 0 0 0
          0 0 0 0 0 0
          0 0 0 0 0 0
          0 0 0 0 0 0
          0 0 0 0 0 0
          0 0 0 0 0 0
          0 0 0 0 0 0
          0 0 0 0 0 0
          0 0 0 0 0 0
          0 0 0 0 0 0
          0 0 0 0 0 0
          0 0 0 0 0 0
          0 0 0 0 0 0
          0 0 0 0 0 0
          0 0 0 0 0 0
          0 0 0 0 0 0
          0 0 0 0 0 0
          0 0 0 0 0 0
          0 0 0 0 0 0
          0 0 0 0 0 0
          0 0 0 0 0 0
          0 0 0 0 0 0
          0 0 0 0 0 0
          0 0 0 0 0 0
          0 0 0 0 0 0
          0 0 0 0 0 0
          0 0 0 0 0 0
          0 0 0 0 0 0
          0 0 0 0 0 0
          0 0 0 0 0 0
          0 0 0 0 0 0
          0 0 0 0 0 0
          0 0 0 0 0 0
          0 0 0 0 0 0
          0 0 0 0 0 0
          0 0 0 0 0 0
          0 0 0 0 0 0
          0 0 0 0 0 0
          0 0 0 0 0 0
          0 0 0 0 0 0
          0 0 0 0 0 0
          0 0 0 0 0 0
          0 0 0 0 0 0
          0 0 0 0 0 0
          0 0 0 0 0 0
          0 0 0 0 0 0
          0 0 0 0 0 0
          0 0 0 0 0 0
          0 0 0 0 0 0
          0 0 0 0 0 0
          0 0 0 0 0 0
          0 0 0 0 0 0
          0 0 0 0 0 0
          0 0 0 0 0 0
          0 0 0 0 0 0
          0 0 0 0 0 0
          0 0 0 0 0 0
          0 0 0 0 0 0
          0 0 0 0 0 0
          0 0 0 0 0 0
          0 0 0 0 0 0
          0 0 0 0 0 0
          0 0 0 0 0 0
          0 0 0 0 0 0
          0 0 0 0 0 0
          0 0 0 0 0 0
          0 0 0 0 0 0
          0 0 0 0 0 0
          0 0 0 0 0 0
          0 0 0 0 0 0
          0 0 0 0 0 0
          0 0 0 0 0 0
          0 0 0 0 0 0
          0 0 0 0 0 0
          0 0 0 0 0 0
          0 0 0 0 0 0
          0 0 0 0 0 0
          0 0 0 0 0 0
          0 0 0 0 0 0
          0 0 0 0 0 0
          0 0 0 0 0 0
          0 0 0 0 0 0
          0 0 0 0 0 0
          0 0 0 0 0 0
          0 0 0 0 0 0
          0 0 0 0 0 0
          0 0 0 0 0 0
          0 0 0 0 0 0
          0 0 0 0 0 0
          0 0 0 0 0 0
          0 0 0 0 0 0
          0 0 0 0 0 0
          0 0 0 0 0 0
          0 0 0 0 0 0
          0 0 0 0 0 0
          0 0 0 0 0 0
          0 0 0 0 0 0
          0 0 0 0 0 0
          0 0 0 0 0 0
          0 0 0 0 0 0
          0 0 0 0 0 0
          0 0 0 0 0 0
          0 0 0 0 0 0
          0 0 0 0 0 0
          0 0 0 0 0 0
          0 0 0 0 0 0
          0 0 0 0 0 0
          0 0 0 0 0 0
          0 0 0 0 0 0
          0 0 0 0 0 0
          0 0 0 0 0 0
          0 0 0 0 0 0
          0 0 0 0 0 0
          0 0 0 0 0 0
          0 0 0 0 0 0
          0 0 0 0 0 0
          0 0 0 0 0 0
          0 0 0 0 0 0
          0 0 0 0 0 0
          0 0 0 0 0 0
          0 0 0 0 0 0
          0 0 0 0 0 0
          0 0 0 0 0 0
          0 0 0 0 0 0
          0 0 0 0 0 0
          0 0 0 0 0 0
          0 0 0 0 0 0
          0 0 0 0 0 0
          0 0 0 0 0 0
          0 0 0 0 0 0
          0 0 0 0 0 0
          0 0 0 0 0 0
          0 0 0 0 0 0
          0 0 0 0 0 0
          0 0 0 0 0 0
          0 0 0 0 0 0
          0 0 0 0 0 0
          0 0 0 0 0 0
          0 0 0 0 0 0
          0 0 0 0 0 0
          0 0 0 0 0 0
          0 0 0 0 0 0
          0 0 0 0 0 0
          0 0 0 0 0 0
          0 0 0 0 0 0
          0 0 0 0 0 0
          0 0 0 0 0 0
          0 0 0 0 0 0
          0 0 0 0 0 0
          0 0 0 0 0 0
          0 0 0 0 0 0
          0 0 0 0 0 0
          0 0 0 0 0 0
          0 0 0 0 0 0
          0 0 0 0 0 0
          0 0 0 0 0 0
          0 0 0 0 0 0
          0 0 0 0 0 0
          0 0 0 0 0 0
          0 0 0 0 0 0
          0 0 0 0 0 0
          0 0 0 0 0 0
          0 0 0 0 0 0
          0 0 0 0 0 0
          0 0 0 0 0 0
          0 0 0 0 0 0
          0 0 0 0 0 0
          0 0 0 0 0 0
          0 0 0 0 0 0
          0 0 0 0 0 0
          0 0 0 0 0 0
          0 0 0 0 0 0
          0 0 0 0 0 0
          0 0 0 0 0 0
          0 0 0 0 0 0
          0 0 0 0 0 0
          0 0 0 0 0 0
          0 0 0 0 0 0
          0 0 0 0 0 0
          0 0 0 0 0 0
          0 0 0 0 0 0
          0 0 0 0 0 0
          0 0 0 0 0 0
          0 0 0 0 0 0
          0 0 0 0 0 0
          0 0 0 0 0 0
          0 0 0 0 0 0
          0 0 0 0 0 0
          0 0 0 0 0 0
          0 0 0 0 0 0
          0 0 0 0 0 0
          0 0 0 0 0 0
          0 0 0 0 0 0
          0 0 0 0 0 0
          0 0 0 0 0 0
          0 0 0 0 0 0
          0 0 0 0 0 0
          0 0 0 0 0 0
          0 0 0 0 0 0
          0 0 0 0 0 0
          0 0 0 0 0 0
          0 0 0 0 0 0
          0 0 0 0 0 0
          0 0 0 0 0 0
          0 0 0 0 0 0
          0 0 0 0 0 0
          0 0 0 0 0 0
          0 0 0 0 0 0
          0 0 0 0 0 0
          0 0 0 0 0 0
          0 0 0 0 0 0
          0 0 0 0 0 0
          0 0 0 0 0 0
          0 0 0 0 0 0
          0 0 0 0 0 0
          0 0 0 0 0 0
          0 0 0 0 0 0
          0 0 0 0 0 0
          0 0 0 0 0 0
          0 0 0 0 0 0
          0 0 0 0 0 0
          0 0 0 0 0 0
          0 0 0 0 0 0
          0 0 0 0 0 0
          0 0 0 0 0 0
          0 0 0 0 0 0
          0 0 0 0 0 0
          0 0 0 0 0 0
          0 0 0 0 0 0
          0 0 0 0 0 0
          0 0 0 0 0 0
          0 0 0 0 0 0
          0 0 0 0 0 0
          0 0 0 0 0 0
          0 0 0 0 0 0
          0 0 0 0 0 0
          0 0 0 0 0 0
          0 0 0 0 0 0
          0 0 0 0 0 0
          0 0 0 0 0 0
          0 0 0 0 0 0
          0 0 0 0 0 0
          0 0 0 0 0 0
          0 0 0 0 0 0
          0 0 0 0 0 0
          0 0 0 0 0 0
          0 0 0 0 0 0
          0 0 0 0 0 0
          0 0 0 0 0 0
          0 0 0 0 0 0
          0 0 0 0 0 0
          0 0 0 0 0 0
          0 0 0 0 0 0
          0 0 0 0 0 0
          0 0 0 0 0 0
          0 0 0 0 0 0
          0 0 0 0 0 0
          0 0 0 0 0 0
          0 0 0 0 0 0
          0 0 0 0 0 0
          0 0 0 0 0 0
          0 0 0 0 0 0
          0 0 0 0 0 0
          0 0 0 0 0 0
          0 0 0 0 0 0
          0 0 0 0 0 0
          0 0 0 0 0 0
          0 0 0 0 0 0
          0 0 0 0 0 0
          0 0 0 0 0 0
          0 0 0 0 0 0
          0 0 0 0 0 0
          0 0 0 0 0 0
          0 0 0 0 0 0
          0 0 0 0 0 0
          0 0 0 0 0 0
          0 0 0 0 0 0
          0 0 0 0 0 0
          0 0 0 0 0 0
          0 0 0 0 0 0
          0 0 0 0 0 0
          0 0 0 0 0 0
          0 0 0 0 0 0
          0 0 0 0 0 0
          0 0 0 0 0 0
          0 0 0 0 0 0
          0 0 0 0 0 0
          0 0 0 0 0 0
          0 0 0 0 0 0
          0 0 0 0 0 0
          0 0 0 0 0 0
          0 0 0 0 0 0
          0 0 0 0 0 0
          0 0 0 0 0 0
          0 0 0 0 0 0
          0 0 0 0 0 0
          0 0 0 0 0 0
          0 0 0 0 0 0
          0 0 0 0 0 0
          0 0 0 0 0 0
          0 0 0 0 0 0
          0 0 0 0 0 0
          0 0 0 0 0 0
          0 0 0 0 0 0
          0 0 0 0 0 0
          0 0 0 0 0 0
          0 0 0 0 0 0
          0 0 0 0 0 0
          0 0 0 0 0 0
          0 0 0 0 0 0
          0 0 0 0 0 0
          0 0 0 0 0 0
          0 0 0 0 0 0
          0 0 0 0 0 0
          0 0 0 0 0 0
          0 0 0 0 0 0
          0 0 0 0 0 0
          0 0 0 0 0 0
          0 0 0 0 0 0
          0 0 0 0 0 0
          0 0 0 0 0 0
          0 0 0 0 0 0
          0 0 0 0 0 0
          0 0 0 0 0 0
          0 0 0 0 0 0
          0 0 0 0 0 0
          0 0 0 0 0 0
          0 0 0 0 0 0
          0 0 0 0 0 0
          0 0 0 0 0 0
          0 0 0 0 0 0
          0 0 0 0 0 0
          0 0 0 0 0 0
          0 0 0 0 0 0
          0 0 0 0 0 0
          0 0 0 0 0 0
          0 0 0 0 0 0
          0 0 0 0 0 0
          0 0 0 0 0 0
          0 0 0 0 0 0
          0 0 0 0 0 0
          0 0 0 0 0 0
          0 0 0 0 0 0
          0 0 0 0 0 0
          0 0 0 0 0 0
          0 0 0 0 0 0
          0 0 0 0 0 0
          0 0 0 0 0 0
          0 0 0 0 0 0
          0 0 0 0 0 0
          0 0 0 0 0 0
          0 0 0 0 0 0
          0 0 0 0 0 0
          0 0 0 0 0 0
          0 0 0 0 0 0
          0 0 0 0 0 0
          0 0 0 0 0 0
          0 0 0 0 0 0
          0 0 0 0 0 0
          0 0 0 0 0 0
          0 0 0 0 0 0
          0 0 0 0 0 0
          0 0 0 0 0 0
          0 0 0 0 0 0
          0 0 0 0 0 0
          0 0 0 0 0 0
          0 0 0 0 0 0
          0 0 0 0 0 0
          0 0 0 0 0 0
          0 0 0 0 0 0
          0 0 0 0 0 0
          0 0 0 0 0 0
          0 0 0 0 0 0
          0 0 0 0 0 0
          0 0 0 0 0 0
          0 0 0 0 0 0
          0 0 0 0 0 0
          0 0 0 0 0 0
          0 0 0 0 0 0
          0 0 0 0 0 0
          0 0 0 0 0 0
          0 0 0 0 0 0
          0 0 0 0 0 0
          0 0 0 0 0 0
          0 0 0 0 0 0
          0 0 0 0 0 0
          0 0 0 0 0 0
          0 0 0 0 0 0
          0 0 0 0 0 0
          0 0 0 0 0 0
          0 0 0 0 0 0
          0 0 0 0 0 0
          0 0 0 0 0 0
          0 0 0 0 0 0
          0 0 0 0 0 0
          0 0 0 0 0 0
          0 0 0 0 0 0
          0 0 0 0 0 0
          0 0 0 0 0 0
          0 0 0 0 0 0
          0 0 0 0 0 0
          0 0 0 0 0 0
          0 0 0 0 0 0
          0 0 0 0 0 0
          0 0 0 0 0 0
          0 0 0 0 0 0
          0 0 0 0 0 0
          0 0 0 0 0 0
          0 0 0 0 0 0
          0 0 0 0 0 0
          0 0 0 0 0 0
          0 0 0 0 0 0
          0 0 0 0 0 0
          0 0 0 0 0 0
          0 0 0 0 0 0
          0 0 0 0 0 0
          0 0 0 0 0 0
          0 0 0 0 0 0
          0 0 0 0 0 0
          0 0 0 0 0 0
          0 0 0 0 0 0
          0 0 0 0 0 0
          0 0 0 0 0 0
          0 0 0 0 0 0
          0 0 0 0 0 0
          0 0 0 0 0 0
          0 0 0 0 0 0
          0 0 0 0 0 0
          0 0 0 0 0 0
          0 0 0 0 0 0
          0 0 0 0 0 0
          0 0 0 0 0 0
          0 0 0 0 0 0
          0 0 0 0 0 0
          0 0 0 0 0 0
          0 0 0 0 0 0
          0 0 0 0 0 0
          0 0 0 0 0 0
          0 0 0 0 0 0
          0 0 0 0 0 0
          0 0 0 0 0 0
          0 0 0 0 0 0
          0 0 0 0 0 0
          0 0 0 0 0 0
          0 0 0 0 0 0
          0 0 0 0 0 0
          0 0 0 0 0 0
          0 0 0 0 0 0
          0 0 0 0 0 0
          0 0 0 0 0 0
          0 0 0 0 0 0
          0 0 0 0 0 0
          0 0 0 0 0 0
          0 0 0 0 0 0
          0 0 0 0 0 0
          0 0 0 0 0 0
          0 0 0 0 0 0
          0 0 0 0 0 0
          0 0 0 0 0 0
          0 0 0 0 0 0
          0 0 0 0 0 0
          0 0 0 0 0 0
          0 0 0 0 0 0
          0 0 0 0 0 0
          0 0 0 0 0 0
          0 0 0 0 0 0
          0 0 0 0 0 0
          0 0 0 0 0 0
          0 0 0 0 0 0
          0 0 0 0 0 0
          0 0 0 0 0 0
          0 0 0 0 0 0
          0 0 0 0 0 0
          0 0 0 0 0 0
          0 0 0 0 0 0
          0 0 0 0 0 0
          0 0 0 0 0 0
          0 0 0 0 0 0
          0 0 0 0 0 0
          0 0 0 0 0 0
          0 0 0 0 0 0
          0 0 0 0 0 0
          0 0 0 0 0 0
          0 0 0 0 0 0
          0 0 0 0 0 0
          0 0 0 0 0 0
          0 0 0 0 0 0
          0 0 0 0 0 0
          0 0 0 0 0 0
          0 0 0 0 0 0
          0 0 0 0 0 0
          0 0 0 0 0 0
          0 0 0 0 0 0
          0 0 0 0 0 0
          0 0 0 0 0 0
          0 0 0 0 0 0
          0 0 0 0 0 0
          0 0 0 0 0 0
          0 0 0 0 0 0
          0 0 0 0 0 0
          0 0 0 0 0 0
          0 0 0 0 0 0
          0 0 0 0 0 0
          0 0 0 0 0 0
          0 0 0 0 0 0
          0 0 0 0 0 0
          0 0 0 0 0 0
          0 0 0 0 0 0
          0 0 0 0 0 0
          0 0 0 0 0 0
          0 0 0 0 0 0
          0 0 0 0 0 0
          0 0 0 0 0 0
          0 0 0 0 0 0
          0 0 0 0 0 0
          0 0 0 0 0 0
          0 0 0 0 0 0
          0 0 0 0 0 0
          0 0 0 0 0 0
          0 0 0 0 0 0
          0 0 0 0 0 0
          0 0 0 0 0 0
          0 0 0 0 0 0
          0 0 0 0 0 0
          0 0 0 0 0 0
          0 0 0 0 0 0
          0 0 0 0 0 0
          0 0 0 0 0 0
          0 0 0 0 0 0
          0 0 0 0 0 0
          0 0 0 0 0 0
          0 0 0 0 0 0
          0 0 0 0 0 0
          0 0 0 0 0 0
          0 0 0 0 0 0
          0 0 0 0 0 0
          0 0 0 0 0 0
          0 0 0 0 0 0
          0 0 0 0 0 0
          0 0 0 0 0 0
          0 0 0 0 0 0
          0 0 0 0 0 0
          0 0 0 0 0 0
          0 0 0 0 0 0
          0 0 0 0 0 0
          0 0 0 0 0 0
          0 0 0 0 0 0
          0 0 0 0 0 0
          0 0 0 0 0 0
          0 0 0 0 0 0
          0 0 0 0 0 0
          0 0 0 0 0 0
          0 0 0 0 0 0
          0 0 0 0 0 0
          0 0 0 0 0 0
          0 0 0 0 0 0
          0 0 0 0 0 0
          0 0 0 0 0 0
          0 0 0 0 0 0
          0 0 0 0 0 0
          0 0 0 0 0 0
          0 0 0 0 0 0
          0 0 0 0 0 0
          0 0 0 0 0 0
          0 0 0 0 0 0
          0 0 0 0 0 0
          0 0 0 0 0 0
          0 0 0 0 0 0
          0 0 0 0 0 0
          0 0 0 0 0 0
          0 0 0 0 0 0
          0 0 0 0 0 0
          0 0 0 0 0 0
          0 0 0 0 0 0
          0 0 0 0 0 0
          0 0 0 0 0 0
          0 0 0 0 0 0
          0 0 0 0 0 0
          0 0 0 0 0 0
          0 0 0 0 0 0
          0 0 0 0 0 0
          0 0 0 0 0 0
          0 0 0 0 0 0
          0 0 0 0 0 0
          0 0 0 0 0 0
          0 0 0 0 0 0
          0 0 0 0 0 0
          0 0 0 0 0 0
          0 0 0 0 0 0
          0 0 0 0 0 0
          0 0 0 0 0 0
          0 0 0 0 0 0
          0 0 0 0 0 0
          0 0 0 0 0 0
          0 0 0 0 0 0
          0 0 0 0 0 0
          0 0 0 0 0 0
          0 0 0 0 0 0
          0 0 0 0 0 0
          0 0 0 0 0 0
          0 0 0 0 0 0
          0 0 0 0 0 0
          0 0 0 0 0 0
          0 0 0 0 0 0
          0 0 0 0 0 0
          0 0 0 0 0 0
          0 0 0 0 0 0
          0 0 0 0 0 0
          0 0 0 0 0 0
          0 0 0 0 0 0
          0 0 0 0 0 0
          0 0 0 0 0 0
          0 0 0 0 0 0
          0 0 0 0 0 0
          0 0 0 0 0 0
          0 0 0 0 0 0
          0 0 0 0 0 0
          0 0 0 0 0 0
          0 0 0 0 0 0
          0 0 0 0 0 0
          0 0 0 0 0 0
          0 0 0 0 0 0
          0 0 0 0 0 0
          0 0 0 0 0 0
          0 0 0 0 0 0
          0 0 0 0 0 0
          0 0 0 0 0 0
          0 0 0 0 0 0
          0 0 0 0 0 0
          0 0 0 0 0 0
          0 0 0 0 0 0
          0 0 0 0 0 0
          0 0 0 0 0 0
          0 0 0 0 0 0
          0 0 0 0 0 0
          0 0 0 0 0 0
          0 0 0 0 0 0
          0 0 0 0 0 0
          0 0 0 0 0 0
          0 0 0 0 0 0
          0 0 0 0 0 0
          0 0 0 0 0 0
          0 0 0 0 0 0
          0 0 0 0 0 0
          0 0 0 0 0 0
          0 0 0 0 0 0
          0 0 0 0 0 0
          0 0 0 0 0 0
          0 0 0 0 0 0
          0 0 0 0 0 0
          0 0 0 0 0 0
          0 0 0 0 0 0
          0 0 0 0 0 0
          0 0 0 0 0 0
          0 0 0 0 0 0
          0 0 0 0 0 0
          0 0 0 0 0 0
          0 0 0 0 0 0
          0 0 0 0 0 0
          0 0 0 0 0 0
          0 0 0 0 0 0
          0 0 0 0 0 0
          0 0 0 0 0 0
          0 0 0 0 0 0
          0 0 0 0 0 0
          0 0 0 0 0 0
          0 0 0 0 0 0
          0 0 0 0 0 0
          0 0 0 0 0 0
          0 0 0 0 0 0
          0 0 0 0 0 0
          0 0 0 0 0 0
          0 0 0 0 0 0
          0 0 0 0 0 0
          0 0 0 0 0 0
          0 0 0 0 0 0
          0 0 0 0 0 0
          0 0 0 0 0 0
          0 0 0 0 0 0
          0 0 0 0 0 0
          0 0 0 0 0 0
          0 0 0 0 0 0
          0 0 0 0 0 0
          0 0 0 0 0 0
          0 0 0 0 0 0
          0 0 0 0 0 0
          0 0 0 0 0 0
          0 0 0 0 0 0
          0 0 0 0 0 0
          0 0 0 0 0 0
          0 0 0 0 0 0
          0 0 0 0 0 0
          0 0 0 0 0 0
          0 0 0 0 0 0
          0 0 0 0 0 0
          0 0 0 0 0 0
          0 0 0 0 0 0
          0 0 0 0 0 0
          0 0 0 0 0 0
          0 0 0 0 0 0
          0 0 0 0 0 0
          0 0 0 0 0 0
          0 0 0 0 0 0
          0 0 0 0 0 0
          0 0 0 0 0 0
          0 0 0 0 0 0
          0 0 0 0 0 0
          0 0 0 0 0 0
          0 0 0 0 0 0
          0 0 0 0 0 0
          0 0 0 0 0 0
          0 0 0 0 0 0
          0 0 0 0 0 0
          0 0 0 0 0 0
          0 0 0 0 0 0
          0 0 0 0 0 0
          0 0 0 0 0 0
          0 0 0 0 0 0
          0 0 0 0 0 0
          0 0 0 0 0 0
          0 0 0 0 0 0
          0 0 0 0 0 0
          0 0 0 0 0 0
          0 0 0 0 0 0
          0 0 0 0 0 0
          0 0 0 0 0 0
          0 0 0 0 0 0
          0 0 0 0 0 0
          0 0 0 0 0 0
          0 0 0 0 0 0
          0 0 0 0 0 0
          0 0 0 0 0 0
          0 0 0 0 0 0
          0 0 0 0 0 0
          0 0 0 0 0 0
          0 0 0 0 0 0
          0 0 0 0 0 0
          0 0 0 0 0 0
          0 0 0 0 0 0
          0 0 0 0 0 0
          0 0 0 0 0 0
          0 0 0 0 0 0
          0 0 0 0 0 0
          0 0 0 0 0 0
          0 0 0 0 0 0
          0 0 0 0 0 0
          0 0 0 0 0 0
          0 0 0 0 0 0
          0 0 0 0 0 0
          0 0 0 0 0 0
          0 0 0 0 0 0
          0 0 0 0 0 0
          0 0 0 0 0 0
          0 0 0 0 0 0
          0 0 0 0 0 0
          0 0 0 0 0 0
          0 0 0 0 0 0
          0 0 0 0 0 0
          0 0 0 0 0 0
          0 0 0 0 0 0
          0 0 0 0 0 0
          0 0 0 0 0 0
          0 0 0 0 0 0
          0 0 0 0 0 0
          0 0 0 0 0 0
          0 0 0 0 0 0
          0 0 0 0 0 0
          0 0 0 0 0 0
          0 0 0 0 0 0
          0 0 0 0 0 0
          0 0 0 0 0 0
          0 0 0 0 0 0
          0 0 0 0 0 0
          0 0 0 0 0 0
          0 0 0 0 0 0
          0 0 0 0 0 0
          0 0 0 0 0 0
          0 0 0 0 0 0
          0 0 0 0 0 0
          0 0 0 0 0 0
          0 0 0 0 0 0
          0 0 0 0 0 0
          0 0 0 0 0 0
          0 0 0 0 0 0
          0 0 0 0 0 0
          0 0 0 0 0 0
          0 0 0 0 0 0
          0 0 0 0 0 0
          0 0 0 0 0 0
          0 0 0 0 0 0
          0 0 0 0 0 0
          0 0 0 0 0 0
          0 0 0 0 0 0
          0 0 0 0 0 0
          0 0 0 0 0 0
          0 0 0 0 0 0
          0 0 0 0 0 0
          0 0 0 0 0 0
          0 0 0 0 0 0
          0 0 0 0 0 0
          0 0 0 0 0 0
          0 0 0 0 0 0
          0 0 0 0 0 0
          0 0 0 0 0 0
          0 0 0 0 0 0
          0 0 0 0 0 0
          0 0 0 0 0 0
          0 0 0 0 0 0
          0 0 0 0 0 0
          0 0 0 0 0 0
          0 0 0 0 0 0
          0 0 0 0 0 0
          0 0 0 0 0 0
          0 0 0 0 0 0
          0 0 0 0 0 0
          0 0 0 0 0 0
          0 0 0 0 0 0
          0 0 0 0 0 0
          0 0 0 0 0 0
          0 0 0 0 0 0
          0 0 0 0 0 0
          0 0 0 0 0 0
          0 0 0 0 0 0
          0 0 0 0 0 0
          0 0 0 0 0 0
          0 0 0 0 0 0
          0 0 0 0 0 0
          0 0 0 0 0 0
          0 0 0 0 0 0
          0 0 0 0 0 0
          0 0 0 0 0 0
          0 0 0 0 0 0
          0 0 0 0 0 0
          0 0 0 0 0 0
          0 0 0 0 0 0
          0 0 0 0 0 0
          0 0 0 0 0 0
          0 0 0 0 0 0
          0 0 0 0 0 0
          0 0 0 0 0 0
          0 0 0 0 0 0
          0 0 0 0 0 0
          0 0 0 0 0 0
          0 0 0 0 0 0
          0 0 0 0 0 0
          0 0 0 0 0 0
          0 0 0 0 0 0
          0 0 0 0 0 0
          0 0 0 0 0 0
          0 0 0 0 0 0
          0 0 0 0 0 0
          0 0 0 0 0 0
          0 0 0 0 0 0
          0 0 0 0 0 0
          0 0 0 0 0 0
          0 0 0 0 0 0
          0 0 0 0 0 0
          0 0 0 0 0 0
          0 0 0 0 0 0
          0 0 0 0 0 0
          0 0 0 0 0 0
          0 0 0 0 0 0
          0 0 0 0 0 0
          0 0 0 0 0 0
          0 0 0 0 0 0
          0 0 0 0 0 0
          0 0 0 0 0 0
          0 0 0 0 0 0
          0 0 0 0 0 0
          0 0 0 0 0 0
          0 0 0 0 0 0
          0 0 0 0 0 0
          0 0 0 0 0 0
          0 0 0 0 0 0
          0 0 0 0 0 0
          0 0 0 0 0 0
          0 0 0 0 0 0
          0 0 0 0 0 0
          0 0 0 0 0 0
          0 0 0 0 0 0
          0 0 0 0 0 0
          0 0 0 0 0 0
          0 0 0 0 0 0
          0 0 0 0 0 0
          0 0 0 0 0 0
          0 0 0 0 0 0
          0 0 0 0 0 0
          0 0 0 0 0 0
          0 0 0 0 0 0
          0 0 0 0 0 0
          0 0 0 0 0 0
          0 0 0 0 0 0
          0 0 0 0 0 0
          0 0 0 0 0 0
          0 0 0 0 0 0
          0 0 0 0 0 0
          0 0 0 0 0 0
          0 0 0 0 0 0
          0 0 0 0 0 0
          0 0 0 0 0 0
          0 0 0 0 0 0
          0 0 0 0 0 0
          0 0 0 0 0 0
          0 0 0 0 0 0
          0 0 0 0 0 0
          0 0 0 0 0 0
          0 0 0 0 0 0
          0 0 0 0 0 0
          0 0 0 0 0 0
          0 0 0 0 0 0
          0 0 0 0 0 0
          0 0 0 0 0 0
          0 0 0 0 0 0
          0 0 0 0 0 0
          0 0 0 0 0 0
          0 0 0 0 0 0
          0 0 0 0 0 0
          0 0 0 0 0 0
          0 0 0 0 0 0
          0 0 0 0 0 0
          0 0 0 0 0 0
          0 0 0 0 0 0
          0 0 0 0 0 0
          0 0 0 0 0 0
          0 0 0 0 0 0
          0 0 0 0 0 0
          0 0 0 0 0 0
          0 0 0 0 0 0
          0 0 0 0 0 0
          0 0 0 0 0 0
          0 0 0 0 0 0
          0 0 0 0 0 0
          0 0 0 0 0 0
          0 0 0 0 0 0
          0 0 0 0 0 0
          0 0 0 0 0 0
          0 0 0 0 0 0
          0 0 0 0 0 0
          0 0 0 0 0 0
          0 0 0 0 0 0
          0 0 0 0 0 0
          0 0 0 0 0 0
          0 0 0 0 0 0
          0 0 0 0 0 0
          0 0 0 0 0 0
          0 0 0 0 0 0
          0 0 0 0 0 0
          0 0 0 0 0 0
          0 0 0 0 0 0
          0 0 0 0 0 0
          0 0 0 0 0 0
          0 0 0 0 0 0
          0 0 0 0 0 0
          0 0 0 0 0 0
          0 0 0 0 0 0
          0 0 0 0 0 0
          0 0 0 0 0 0
          0 0 0 0 0 0
          0 0 0 0 0 0
          0 0 0 0 0 0
          0 0 0 0 0 0
          0 0 0 0 0 0
          0 0 0 0 0 0
          0 0 0 0 0 0
          0 0 0 0 0 0
          0 0 0 0 0 0
          0 0 0 0 0 0
          0 0 0 0 0 0
          0 0 0 0 0 0
          0 0 0 0 0 0
          0 0 0 0 0 0
          0 0 0 0 0 0
          0 0 0 0 0 0
          0 0 0 0 0 0
          0 0 0 0 0 0
          0 0 0 0 0 0
          0 0 0 0 0 0
          0 0 0 0 0 0
          0 0 0 0 0 0
          0 0 0 0 0 0
          0 0 0 0 0 0
          0 0 0 0 0 0
          0 0 0 0 0 0
          0 0 0 0 0 0
          0 0 0 0 0 0
          0 0 0 0 0 0
          0 0 0 0 0 0
          0 0 0 0 0 0
          0 0 0 0 0 0
          0 0 0 0 0 0
          0 0 0 0 0 0
          0 0 0 0 0 0
          0 0 0 0 0 0
          0 0 0 0 0 0
          0 0 0 0 0 0
          0 0 0 0 0 0
          0 0 0 0 0 0
          0 0 0 0 0 0
          0 0 0 0 0 0
          0 0 0 0 0 0
          0 0 0 0 0 0
          0 0 0 0 0 0
          0 0 0 0 0 0
          0 0 0 0 0 0
          0 0 0 0 0 0
          0 0 0 0 0 0
          0 0 0 0 0 0
          0 0 0 0 0 0
          0 0 0 0 0 0
          0 0 0 0 0 0
          0 0 0 0 0 0
          0 0 0 0 0 0
          0 0 0 0 0 0
          0 0 0 0 0 0
          0 0 0 0 0 0
          0 0 0 0 0 0
          0 0 0 0 0 0
          0 0 0 0 0 0
          0 0 0 0 0 0
          0 0 0 0 0 0
          0 0 0 0 0 0
          0 0 0 0 0 0
          0 0 0 0 0 0
          0 0 0 0 0 0
          0 0 0 0 0 0
          0 0 0 0 0 0
          0 0 0 0 0 0
          0 0 0 0 0 0
          0 0 0 0 0 0
          0 0 0 0 0 0
          0 0 0 0 0 0
          0 0 0 0 0 0
          0 0 0 0 0 0
          0 0 0 0 0 0
          0 0 0 0 0 0
          0 0 0 0 0 0
          0 0 0 0 0 0
          0 0 0 0 0 0
          0 0 0 0 0 0
          0 0 0 0 0 0
          0 0 0 0 0 0
          0 0 0 0 0 0
          0 0 0 0 0 0
          0 0 0 0 0 0
          0 0 0 0 0 0
          0 0 0 0 0 0
          0 0 0 0 0 0
          0 0 0 0 0 0
          0 0 0 0 0 0
          0 0 0 0 0 0
          0 0 0 0 0 0
          0 0 0 0 0 0
          0 0 0 0 0 0
          0 0 0 0 0 0
          0 0 0 0 0 0
          0 0 0 0 0 0
          0 0 0 0 0 0
          0 0 0 0 0 0
          0 0 0 0 0 0
          0 0 0 0 0 0
          0 0 0 0 0 0
          0 0 0 0 0 0
          0 0 0 0 0 0
          0 0 0 0 0 0
          0 0 0 0 0 0
          0 0 0 0 0 0
          0 0 0 0 0 0
          0 0 0 0 0 0
          0 0 0 0 0 0
          0 0 0 0 0 0
          0 0 0 0 0 0
          0 0 0 0 0 0
          0 0 0 0 0 0
          0 0 0 0 0 0
          0 0 0 0 0 0
          0 0 0 0 0 0
          0 0 0 0 0 0
          0 0 0 0 0 0
          0 0 0 0 0 0
          0 0 0 0 0 0
          0 0 0 0 0 0
          0 0 0 0 0 0
          0 0 0 0 0 0
          0 0 0 0 0 0
          0 0 0 0 0 0
          0 0 0 0 0 0
          0 0 0 0 0 0
          0 0 0 0 0 0
          0 0 0 0 0 0
          0 0 0 0 0 0
          0 0 0 0 0 0
          0 0 0 0 0 0
          0 0 0 0 0 0
          0 0 0 0 0 0
          0 0 0 0 0 0
          0 0 0 0 0 0
          0 0 0 0 0 0
          0 0 0 0 0 0
          0 0 0 0 0 0
          0 0 0 0 0 0
          0 0 0 0 0 0
          0 0 0 0 0 0
          0 0 0 0 0 0
          0 0 0 0 0 0
          0 0 0 0 0 0
          0 0 0 0 0 0
          0 0 0 0 0 0
          0 0 0 0 0 0
          0 0 0 0 0 0
          0 0 0 0 0 0
          0 0 0 0 0 0
          0 0 0 0 0 0
          0 0 0 0 0 0
          0 0 0 0 0 0
          0 0 0 0 0 0
          0 0 0 0 0 0
          0 0 0 0 0 0
          0 0 0 0 0 0
          0 0 0 0 0 0
          0 0 0 0 0 0
          0 0 0 0 0 0
          0 0 0 0 0 0
          0 0 0 0 0 0
          0 0 0 0 0 0
          0 0 0 0 0 0
          0 0 0 0 0 0
          0 0 0 0 0 0
          0 0 0 0 0 0
          0 0 0 0 0 0
          0 0 0 0 0 0
          0 0 0 0 0 0
          0 0 0 0 0 0
          0 0 0 0 0 0
          0 0 0 0 0 0
          0 0 0 0 0 0
          0 0 0 0 0 0
          0 0 0 0 0 0
          0 0 0 0 0 0
          0 0 0 0 0 0
          0 0 0 0 0 0
          0 0 0 0 0 0
          0 0 0 0 0 0
          0 0 0 0 0 0
          0 0 0 0 0 0
          0 0 0 0 0 0
          0 0 0 0 0 0
          0 0 0 0 0 0
          0 0 0 0 0 0
          0 0 0 0 0 0
          0 0 0 0 0 0
          0 0 0 0 0 0
          0 0 0 0 0 0
          0 0 0 0 0 0
          0 0 0 0 0 0
          0 0 0 0 0 0
          0 0 0 0 0 0
          0 0 0 0 0 0
          0 0 0 0 0 0
          0 0 0 0 0 0
          0 0 0 0 0 0
          0 0 0 0 0 0
          0 0 0 0 0 0
          0 0 0 0 0 0
          0 0 0 0 0 0
          0 0 0 0 0 0
          0 0 0 0 0 0
          0 0 0 0 0 0
          0 0 0 0 0 0
          0 0 0 0 0 0
          0 0 0 0 0 0
          0 0 0 0 0 0
          0 0 0 0 0 0
          0 0 0 0 0 0
          0 0 0 0 0 0
          0 0 0 0 0 0
          0 0 0 0 0 0
          0 0 0 0 0 0
          0 0 0 0 0 0
          0 0 0 0 0 0
          0 0 0 0 0 0
          0 0 0 0 0 0
          0 0 0 0 0 0
          0 0 0 0 0 0
          0 0 0 0 0 0
          0 0 0 0 0 0
          0 0 0 0 0 0
          0 0 0 0 0 0
          0 0 0 0 0 0
          0 0 0 0 0 0
          0 0 0 0 0 0
          0 0 0 0 0 0
          0 0 0 0 0 0
          0 0 0 0 0 0
          0 0 0 0 0 0
          0 0 0 0 0 0
          0 0 0 0 0 0
          0 0 0 0 0 0
          0 0 0 0 0 0
          0 0 0 0 0 0
          0 0 0 0 0 0
          0 0 0 0 0 0
          0 0 0 0 0 0
          0 0 0 0 0 0
          0 0 0 0 0 0
          0 0 0 0 0 0
          0 0 0 0 0 0
          0 0 0 0 0 0
          0 0 0 0 0 0
          0 0 0 0 0 0
          0 0 0 0 0 0
          0 0 0 0 0 0
          0 0 0 0 0 0
          0 0 0 0 0 0
          0 0 0 0 0 0
          0 0 0 0 0 0
          0 0 0 0 0 0
          0 0 0 0 0 0
          0 0 0 0 0 0
          0 0 0 0 0 0
          0 0 0 0 0 0
          0 0 0 0 0 0
          0 0 0 0 0 0
          0 0 0 0 0 0
          0 0 0 0 0 0
          0 0 0 0 0 0
          0 0 0 0 0 0
          0 0 0 0 0 0
          0 0 0 0 0 0
          0 0 0 0 0 0
          0 0 0 0 0 0
          0 0 0 0 0 0
          0 0 0 0 0 0
          0 0 0 0 0 0
          0 0 0 0 0 0
          0 0 0 0 0 0
          0 0 0 0 0 0
          0 0 0 0 0 0
          0 0 0 0 0 0
          0 0 0 0 0 0
          0 0 0 0 0 0
          0 0 0 0 0 0
          0 0 0 0 0 0
          0 0 0 0 0 0
          0 0 0 0 0 0
          0 0 0 0 0 0
          0 0 0 0 0 0
          0 0 0 0 0 0
          0 0 0 0 0 0
          0 0 0 0 0 0
          0 0 0 0 0 0
          0 0 0 0 0 0
          0 0 0 0 0 0
          0 0 0 0 0 0
          0 0 0 0 0 0
          0 0 0 0 0 0
          0 0 0 0 0 0
          0 0 0 0 0 0
          0 0 0 0 0 0
          0 0 0 0 0 0
          0 0 0 0 0 0
          0 0 0 0 0 0
          0 0 0 0 0 0
          0 0 0 0 0 0
          0 0 0 0 0 0
          0 0 0 0 0 0
          0 0 0 0 0 0
          0 0 0 0 0 0
          0 0 0 0 0 0
          0 0 0 0 0 0
          0 0 0 0 0 0
          0 0 0 0 0 0
          0 0 0 0 0 0
          0 0 0 0 0 0
          0 0 0 0 0 0
          0 0 0 0 0 0
          0 0 0 0 0 0
          0 0 0 0 0 0
          0 0 0 0 0 0
          0 0 0 0 0 0
          0 0 0 0 0 0
          0 0 0 0 0 0
          0 0 0 0 0 0
          0 0 0 0 0 0
          0 0 0 0 0 0
          0 0 0 0 0 0
          0 0 0 0 0 0
          0 0 0 0 0 0
          0 0 0 0 0 0
          0 0 0 0 0 0
          0 0 0 0 0 0
          0 0 0 0 0 0
          0 0 0 0 0 0
          0 0 0 0 0 0
          0 0 0 0 0 0
          0 0 0 0 0 0
          0 0 0 0 0 0
          0 0 0 0 0 0
          0 0 0 0 0 0
          0 0 0 0 0 0
          0 0 0 0 0 0
          0 0 0 0 0 0
          0 0 0 0 0 0
          0 0 0 0 0 0
          0 0 0 0 0 0
          0 0 0 0 0 0
          0 0 0 0 0 0
          0 0 0 0 0 0
          0 0 0 0 0 0
          0 0 0 0 0 0
          0 0 0 0 0 0
          0 0 0 0 0 0
          0 0 0 0 0 0
          0 0 0 0 0 0
          0 0 0 0 0 0
          0 0 0 0 0 0
          0 0 0 0 0 0
          0 0 0 0 0 0
          0 0 0 0 0 0
          0 0 0 0 0 0
          0 0 0 0 0 0
          0 0 0 0 0 0
          0 0 0 0 0 0
          0 0 0 0 0 0
          0 0 0 0 0 0
          0 0 0 0 0 0
          0 0 0 0 0 0
          0 0 0 0 0 0
          0 0 0 0 0 0
          0 0 0 0 0 0
          0 0 0 0 0 0
          0 0 0 0 0 0
          0 0 0 0 0 0
          0 0 0 0 0 0
          0 0 0 0 0 0
          0 0 0 0 0 0
          0 0 0 0 0 0
          0 0 0 0 0 0
          0 0 0 0 0 0
          0 0 0 0 0 0
          0 0 0 0 0 0
          0 0 0 0 0 0
          0 0 0 0 0 0
          0 0 0 0 0 0
          0 0 0 0 0 0
          0 0 0 0 0 0
          0 0 0 0 0 0
          0 0 0 0 0 0
          0 0 0 0 0 0
          0 0 0 0 0 0
          0 0 0 0 0 0
          0 0 0 0 0 0
          0 0 0 0 0 0
          0 0 0 0 0 0
          0 0 0 0 0 0
          0 0 0 0 0 0
          0 0 0 0 0 0
          0 0 0 0 0 0
          0 0 0 0 0 0
          0 0 0 0 0 0
          0 0 0 0 0 0
          0 0 0 0 0 0
          0 0 0 0 0 0
          0 0 0 0 0 0
          0 0 0 0 0 0
          0 0 0 0 0 0
          0 0 0 0 0 0
          0 0 0 0 0 0
          0 0 0 0 0 0
          0 0 0 0 0 0
          0 0 0 0 0 0
          0 0 0 0 0 0
          0 0 0 0 0 0
          0 0 0 0 0 0
          0 0 0 0 0 0
          0 0 0 0 0 0
          0 0 0 0 0 0
          0 0 0 0 0 0
          0 0 0 0 0 0
          0 0 0 0 0 0
          0 0 0 0 0 0
          0 0 0 0 0 0
          0 0 0 0 0 0
          0 0 0 0 0 0
          0 0 0 0 0 0
          0 0 0 0 0 0
          0 0 0 0 0 0
          0 0 0 0 0 0
          0 0 0 0 0 0
          0 0 0 0 0 0
          0 0 0 0 0 0
          0 0 0 0 0 0
          0 0 0 0 0 0
          0 0 0 0 0 0
          0 0 0 0 0 0
          0 0 0 0 0 0
          0 0 0 0 0 0
          0 0 0 0 0 0
          0 0 0 0 0 0
          0 0 0 0 0 0
          0 0 0 0 0 0
          0 0 0 0 0 0
          0 0 0 0 0 0
          0 0 0 0 0 0
          0 0 0 0 0 0
          0 0 0 0 0 0
          0 0 0 0 0 0
          0 0 0 0 0 0
          0 0 0 0 0 0
          0 0 0 0 0 0
          0 0 0 0 0 0
          0 0 0 0 0 0
          0 0 0 0 0 0
          0 0 0 0 0 0
          0 0 0 0 0 0
          0 0 0 0 0 0
          0 0 0 0 0 0
          0 0 0 0 0 0
          0 0 0 0 0 0
          0 0 0 0 0 0
          0 0 0 0 0 0
          0 0 0 0 0 0
          0 0 0 0 0 0
          0 0 0 0 0 0
          0 0 0 0 0 0
          0 0 0 0 0 0
          0 0 0 0 0 0
          0 0 0 0 0 0
          0 0 0 0 0 0
          0 0 0 0 0 0
          0 0 0 0 0 0
          0 0 0 0 0 0
          0 0 0 0 0 0
          0 0 0 0 0 0
          0 0 0 0 0 0
          0 0 0 0 0 0
          0 0 0 0 0 0
          0 0 0 0 0 0
          0 0 0 0 0 0
          0 0 0 0 0 0
          0 0 0 0 0 0
          0 0 0 0 0 0
          0 0 0 0 0 0
          0 0 0 0 0 0
          0 0 0 0 0 0
          0 0 0 0 0 0
          0 0 0 0 0 0
          0 0 0 0 0 0
          0 0 0 0 0 0
          0 0 0 0 0 0
          0 0 0 0 0 0
          0 0 0 0 0 0
          0 0 0 0 0 0
          0 0 0 0 0 0
          0 0 0 0 0 0
          0 0 0 0 0 0
          0 0 0 0 0 0
          0 0 0 0 0 0
          0 0 0 0 0 0
          0 0 0 0 0 0
          0 0 0 0 0 0
          0 0 0 0 0 0
          0 0 0 0 0 0
          0 0 0 0 0 0
          0 0 0 0 0 0
          0 0 0 0 0 0
          0 0 0 0 0 0
          0 0 0 0 0 0
          0 0 0 0 0 0
          0 0 0 0 0 0
          0 0 0 0 0 0
          0 0 0 0 0 0
          0 0 0 0 0 0
          0 0 0 0 0 0
          0 0 0 0 0 0
          0 0 0 0 0 0
          0 0 0 0 0 0
          0 0 0 0 0 0
          0 0 0 0 0 0
          0 0 0 0 0 0
          0 0 0 0 0 0
          0 0 0 0 0 0
          0 0 0 0 0 0
          0 0 0 0 0 0
          0 0 0 0 0 0
          0 0 0 0 0 0
          0 0 0 0 0 0
          0 0 0 0 0 0
          0 0 0 0 0 0
          0 0 0 0 0 0
          0 0 0 0 0 0
          0 0 0 0 0 0
          0 0 0 0 0 0
          0 0 0 0 0 0
          0 0 0 0 0 0
          0 0 0 0 0 0
          0 0 0 0 0 0
          0 0 0 0 0 0
          0 0 0 0 0 0
          0 0 0 0 0 0
          0 0 0 0 0 0
          0 0 0 0 0 0
          0 0 0 0 0 0
          0 0 0 0 0 0
          0 0 0 0 0 0
          0 0 0 0 0 0
          0 0 0 0 0 0
          0 0 0 0 0 0
          0 0 0 0 0 0
          0 0 0 0 0 0
          0 0 0 0 0 0
          0 0 0 0 0 0
          0 0 0 0 0 0
          0 0 0 0 0 0
          0 0 0 0 0 0
          0 0 0 0 0 0
          0 0 0 0 0 0
          0 0 0 0 0 0
          0 0 0 0 0 0
          0 0 0 0 0 0
          0 0 0 0 0 0
          0 0 0 0 0 0
          0 0 0 0 0 0
          0 0 0 0 0 0
          0 0 0 0 0 0
          0 0 0 0 0 0
          0 0 0 0 0 0
          0 0 0 0 0 0
          0 0 0 0 0 0
          0 0 0 0 0 0
          0 0 0 0 0 0
          0 0 0 0 0 0
          0 0 0 0 0 0
          0 0 0 0 0 0
          0 0 0 0 0 0
          0 0 0 0 0 0
          0 0 0 0 0 0
          0 0 0 0 0 0
          0 0 0 0 0 0
          0 0 0 0 0 0
          0 0 0 0 0 0
          0 0 0 0 0 0
          0 0 0 0 0 0
          0 0 0 0 0 0
          0 0 0 0 0 0
          0 0 0 0 0 0
          0 0 0 0 0 0
          0 0 0 0 0 0
          0 0 0 0 0 0
          0 0 0 0 0 0
          0 0 0 0 0 0
          0 0 0 0 0 0
          0 0 0 0 0 0
          0 0 0 0 0 0
          0 0 0 0 0 0
          0 0 0 0 0 0
          0 0 0 0 0 0
          0 0 0 0 0 0
          0 0 0 0 0 0
          0 0 0 0 0 0
          0 0 0 0 0 0
          0 0 0 0 0 0
          0 0 0 0 0 0
          0 0 0 0 0 0
          0 0 0 0 0 0
          0 0 0 0 0 0
          0 0 0 0 0 0
          0 0 0 0 0 0
          0 0 0 0 0 0
          0 0 0 0 0 0
          0 0 0 0 0 0
          0 0 0 0 0 0
          0 0 0 0 0 0
          0 0 0 0 0 0
          0 0 0 0 0 0
          0 0 0 0 0 0
          0 0 0 0 0 0
          0 0 0 0 0 0
          0 0 0 0 0 0
          0 0 0 0 0 0
          0 0 0 0 0 0
          0 0 0 0 0 0
          0 0 0 0 0 0
          0 0 0 0 0 0
          0 0 0 0 0 0
          0 0 0 0 0 0
          0 0 0 0 0 0
          0 0 0 0 0 0
          0 0 0 0 0 0
          0 0 0 0 0 0
          0 0 0 0 0 0
          0 0 0 0 0 0
          0 0 0 0 0 0
          0 0 0 0 0 0
          0 0 0 0 0 0
          0 0 0 0 0 0
          0 0 0 0 0 0
          0 0 0 0 0 0
          0 0 0 0 0 0
          0 0 0 0 0 0
          0 0 0 0 0 0
          0 0 0 0 0 0
          0 0 0 0 0 0
          0 0 0 0 0 0
          0 0 0 0 0 0
          0 0 0 0 0 0
          0 0 0 0 0 0
          0 0 0 0 0 0
          0 0 0 0 0 0
          0 0 0 0 0 0
          0 0 0 0 0 0
          0 0 0 0 0 0
          0 0 0 0 0 0
          0 0 0 0 0 0
          0 0 0 0 0 0
          0 0 0 0 0 0
          0 0 0 0 0 0
          0 0 0 0 0 0
          0 0 0 0 0 0
          0 0 0 0 0 0
          0 0 0 0 0 0
          0 0 0 0 0 0
          0 0 0 0 0 0
          0 0 0 0 0 0
          0 0 0 0 0 0
          0 0 0 0 0 0
          0 0 0 0 0 0
          0 0 0 0 0 0
          0 0 0 0 0 0
          0 0 0 0 0 0
          0 0 0 0 0 0
          0 0 0 0 0 0
          0 0 0 0 0 0
          0 0 0 0 0 0
          0 0 0 0 0 0
          0 0 0 0 0 0
          0 0 0 0 0 0
          0 0 0 0 0 0
          0 0 0 0 0 0
          0 0 0 0 0 0
          0 0 0 0 0 0
          0 0 0 0 0 0
          0 0 0 0 0 0
          0 0 0 0 0 0
          0 0 0 0 0 0
          0 0 0 0 0 0
          0 0 0 0 0 0
          0 0 0 0 0 0
          0 0 0 0 0 0
          0 0 0 0 0 0
          0 0 0 0 0 0
          0 0 0 0 0 0
          0 0 0 0 0 0
          0 0 0 0 0 0
          0 0 0 0 0 0
          0 0 0 0 0 0
          0 0 0 0 0 0
          0 0 0 0 0 0
          0 0 0 0 0 0
          0 0 0 0 0 0
          0 0 0 0 0 0
          0 0 0 0 0 0
          0 0 0 0 0 0
          0 0 0 0 0 0
          0 0 0 0 0 0
          0 0 0 0 0 0
          0 0 0 0 0 0
          0 0 0 0 0 0
          0 0 0 0 0 0
          0 0 0 0 0 0
          0 0 0 0 0 0
          0 0 0 0 0 0
          0 0 0 0 0 0
          0 0 0 0 0 0
          0 0 0 0 0 0
          0 0 0 0 0 0
          0 0 0 0 0 0
          0 0 0 0 0 0
          0 0 0 0 0 0
          0 0 0 0 0 0
          0 0 0 0 0 0
          0 0 0 0 0 0
          0 0 0 0 0 0
          0 0 0 0 0 0
          0 0 0 0 0 0
          0 0 0 0 0 0
          0 0 0 0 0 0
          0 0 0 0 0 0
          0 0 0 0 0 0
          0 0 0 0 0 0
          0 0 0 0 0 0
          0 0 0 0 0 0
          0 0 0 0 0 0
          0 0 0 0 0 0
          0 0 0 0 0 0
          0 0 0 0 0 0
          0 0 0 0 0 0
          0 0 0 0 0 0
          0 0 0 0 0 0
          0 0 0 0 0 0
          0 0 0 0 0 0
          0 0 0 0 0 0
          0 0 0 0 0 0
          0 0 0 0 0 0
          0 0 0 0 0 0
          0 0 0 0 0 0
          0 0 0 0 0 0
          0 0 0 0 0 0
          0 0 0 0 0 0
          0 0 0 0 0 0
          0 0 0 0 0 0
          0 0 0 0 0 0
          0 0 0 0 0 0
          0 0 0 0 0 0
          0 0 0 0 0 0
          0 0 0 0 0 0
          0 0 0 0 0 0
          0 0 0 0 0 0
          0 0 0 0 0 0
          0 0 0 0 0 0
          0 0 0 0 0 0
          0 0 0 0 0 0
          0 0 0 0 0 0
          0 0 0 0 0 0
          0 0 0 0 0 0
          0 0 0 0 0 0
          0 0 0 0 0 0
          0 0 0 0 0 0
          0 0 0 0 0 0
          0 0 0 0 0 0
          0 0 0 0 0 0
          0 0 0 0 0 0
          0 0 0 0 0 0
          0 0 0 0 0 0
          0 0 0 0 0 0
          0 0 0 0 0 0
          0 0 0 0 0 0
          0 0 0 0 0 0
          0 0 0 0 0 0
          0 0 0 0 0 0
          0 0 0 0 0 0
          0 0 0 0 0 0
          0 0 0 0 0 0
          0 0 0 0 0 0
          0 0 0 0 0 0
          0 0 0 0 0 0
          0 0 0 0 0 0
          0 0 0 0 0 0
          0 0 0 0 0 0
          0 0 0 0 0 0
          0 0 0 0 0 0
          0 0 0 0 0 0
          0 0 0 0 0 0
          0 0 0 0 0 0
          0 0 0 0 0 0
          0 0 0 0 0 0
          0 0 0 0 0 0
          0 0 0 0 0 0
          0 0 0 0 0 0
          0 0 0 0 0 0
          0 0 0 0 0 0
          0 0 0 0 0 0
          0 0 0 0 0 0
          0 0 0 0 0 0
          0 0 0 0 0 0
          0 0 0 0 0 0
          0 0 0 0 0 0
          0 0 0 0 0 0
          0 0 0 0 0 0
          0 0 0 0 0 0
          0 0 0 0 0 0
          0 0 0 0 0 0
          0 0 0 0 0 0
          0 0 0 0 0 0
          0 0 0 0 0 0
          0 0 0 0 0 0
          0 0 0 0 0 0
          0 0 0 0 0 0
          0 0 0 0 0 0
          0 0 0 0 0 0
          0 0 0 0 0 0
          0 0 0 0 0 0
          0 0 0 0 0 0
          0 0 0 0 0 0
          0 0 0 0 0 0
          0 0 0 0 0 0
          0 0 0 0 0 0
          0 0 0 0 0 0
          0 0 0 0 0 0
          0 0 0 0 0 0
          0 0 0 0 0 0
          0 0 0 0 0 0
          0 0 0 0 0 0
          0 0 0 0 0 0
          0 0 0 0 0 0
          0 0 0 0 0 0
          0 0 0 0 0 0
          0 0 0 0 0 0
          0 0 0 0 0 0
          0 0 0 0 0 0
          0 0 0 0 0 0
          0 0 0 0 0 0
          0 0 0 0 0 0
          0 0 0 0 0 0
          0 0 0 0 0 0
          0 0 0 0 0 0
          0 0 0 0 0 0
          0 0 0 0 0 0
          0 0 0 0 0 0
          0 0 0 0 0 0
          0 0 0 0 0 0
          0 0 0 0 0 0
          0 0 0 0 0 0
          0 0 0 0 0 0
          0 0 0 0 0 0
          0 0 0 0 0 0
          0 0 0 0 0 0
          0 0 0 0 0 0
          0 0 0 0 0 0
          0 0 0 0 0 0
          0 0 0 0 0 0
          0 0 0 0 0 0
          0 0 0 0 0 0
          0 0 0 0 0 0
          0 0 0 0 0 0
          0 0 0 0 0 0
          0 0 0 0 0 0
          0 0 0 0 0 0
          0 0 0 0 0 0
          0 0 0 0 0 0
          0 0 0 0 0 0
          0 0 0 0 0 0
          0 0 0 0 0 0
          0 0 0 0 0 0
          0 0 0 0 0 0
          0 0 0 0 0 0
          0 0 0 0 0 0
          0 0 0 0 0 0
          0 0 0 0 0 0
          0 0 0 0 0 0
          0 0 0 0 0 0
          0 0 0 0 0 0
          0 0 0 0 0 0
          0 0 0 0 0 0
          0 0 0 0 0 0
          0 0 0 0 0 0
          0 0 0 0 0 0
          0 0 0 0 0 0
          0 0 0 0 0 0
          0 0 0 0 0 0
          0 0 0 0 0 0
          0 0 0 0 0 0
          0 0 0 0 0 0
          0 0 0 0 0 0
          0 0 0 0 0 0
          0 0 0 0 0 0
          0 0 0 0 0 0
          0 0 0 0 0 0
          0 0 0 0 0 0
          0 0 0 0 0 0
          0 0 0 0 0 0
          0 0 0 0 0 0
          0 0 0 0 0 0
          0 0 0 0 0 0
          0 0 0 0 0 0
          0 0 0 0 0 0
          0 0 0 0 0 0
          0 0 0 0 0 0
          0 0 0 0 0 0
          0 0 0 0 0 0
          0 0 0 0 0 0
          0 0 0 0 0 0
          0 0 0 0 0 0
          0 0 0 0 0 0
          0 0 0 0 0 0
          0 0 0 0 0 0
          0 0 0 0 0 0
          0 0 0 0 0 0
          0 0 0 0 0 0
          0 0 0 0 0 0
          0 0 0 0 0 0
          0 0 0 0 0 0
          0 0 0 0 0 0
          0 0 0 0 0 0
          0 0 0 0 0 0
          0 0 0 0 0 0
          0 0 0 0 0 0
          0 0 0 0 0 0
          0 0 0 0 0 0
          0 0 0 0 0 0
          0 0 0 0 0 0
          0 0 0 0 0 0
          0 0 0 0 0 0
          0 0 0 0 0 0
          0 0 0 0 0 0
          0 0 0 0 0 0
          0 0 0 0 0 0
          0 0 0 0 0 0
          0 0 0 0 0 0
          0 0 0 0 0 0
          0 0 0 0 0 0
          0 0 0 0 0 0
          0 0 0 0 0 0
          0 0 0 0 0 0
          0 0 0 0 0 0
          0 0 0 0 0 0
          0 0 0 0 0 0
          0 0 0 0 0 0
          0 0 0 0 0 0
          0 0 0 0 0 0
          0 0 0 0 0 0
          0 0 0 0 0 0
          0 0 0 0 0 0
          0 0 0 0 0 0
          0 0 0 0 0 0
          0 0 0 0 0 0
          0 0 0 0 0 0
          0 0 0 0 0 0
          0 0 0 0 0 0
          0 0 0 0 0 0
          0 0 0 0 0 0
          0 0 0 0 0 0
          0 0 0 0 0 0
          0 0 0 0 0 0
          0 0 0 0 0 0
          0 0 0 0 0 0
          0 0 0 0 0 0
          0 0 0 0 0 0
          0 0 0 0 0 0
          0 0 0 0 0 0
          0 0 0 0 0 0
          0 0 0 0 0 0
          0 0 0 0 0 0
          0 0 0 0 0 0
          0 0 0 0 0 0
          0 0 0 0 0 0
          0 0 0 0 0 0
          0 0 0 0 0 0
          0 0 0 0 0 0
          0 0 0 0 0 0
          0 0 0 0 0 0
          0 0 0 0 0 0
          0 0 0 0 0 0
          0 0 0 0 0 0
          0 0 0 0 0 0
          0 0 0 0 0 0
          0 0 0 0 0 0
          0 0 0 0 0 0
          0 0 0 0 0 0
          0 0 0 0 0 0
          0 0 0 0 0 0
          0 0 0 0 0 0
          0 0 0 0 0 0
          0 0 0 0 0 0
          0 0 0 0 0 0
          0 0 0 0 0 0
          0 0 0 0 0 0
          0 0 0 0 0 0
          0 0 0 0 0 0
          0 0 0 0 0 0
          0 0 0 0 0 0
          0 0 0 0 0 0
          0 0 0 0 0 0
          0 0 0 0 0 0
          0 0 0 0 0 0
          0 0 0 0 0 0
          0 0 0 0 0 0
          0 0 0 0 0 0
          0 0 0 0 0 0
          0 0 0 0 0 0
          0 0 0 0 0 0
          0 0 0 0 0 0
          0 0 0 0 0 0
          0 0 0 0 0 0
          0 0 0 0 0 0
          0 0 0 0 0 0
          0 0 0 0 0 0
          0 0 0 0 0 0
          0 0 0 0 0 0
          0 0 0 0 0 0
          0 0 0 0 0 0
          0 0 0 0 0 0
          0 0 0 0 0 0
          0 0 0 0 0 0
          0 0 0 0 0 0
          0 0 0 0 0 0
          0 0 0 0 0 0
          0 0 0 0 0 0
          0 0 0 0 0 0
          0 0 0 0 0 0
          0 0 0 0 0 0
          0 0 0 0 0 0
          0 0 0 0 0 0
          0 0 0 0 0 0
          0 0 0 0 0 0
          0 0 0 0 0 0
          0 0 0 0 0 0
          0 0 0 0 0 0
          0 0 0 0 0 0
          0 0 0 0 0 0
          0 0 0 0 0 0
          0 0 0 0 0 0
          0 0 0 0 0 0
          0 0 0 0 0 0
          0 0 0 0 0 0
          0 0 0 0 0 0
          0 0 0 0 0 0
          0 0 0 0 0 0
          0 0 0 0 0 0
          0 0 0 0 0 0
          0 0 0 0 0 0
          0 0 0 0 0 0
          0 0 0 0 0 0
          0 0 0 0 0 0
          0 0 0 0 0 0
          0 0 0 0 0 0
          0 0 0 0 0 0
          0 0 0 0 0 0
          0 0 0 0 0 0
          0 0 0 0 0 0
          0 0 0 0 0 0
          0 0 0 0 0 0
          0 0 0 0 0 0
          0 0 0 0 0 0
          0 0 0 0 0 0
          0 0 0 0 0 0
          0 0 0 0 0 0
          0 0 0 0 0 0
          0 0 0 0 0 0
          0 0 0 0 0 0
          0 0 0 0 0 0
          0 0 0 0 0 0
          0 0 0 0 0 0
          0 0 0 0 0 0
          0 0 0 0 0 0
          0 0 0 0 0 0
          0 0 0 0 0 0
          0 0 0 0 0 0
          0 0 0 0 0 0
          0 0 0 0 0 0
          0 0 0 0 0 0
          0 0 0 0 0 0
          0 0 0 0 0 0
          0 0 0 0 0 0
          0 0 0 0 0 0
          0 0 0 0 0 0
          0 0 0 0 0 0
          0 0 0 0 0 0
          0 0 0 0 0 0
          0 0 0 0 0 0
          0 0 0 0 0 0
          0 0 0 0 0 0
          0 0 0 0 0 0
          0 0 0 0 0 0
          0 0 0 0 0 0
          0 0 0 0 0 0
          0 0 0 0 0 0
          0 0 0 0 0 0
          0 0 0 0 0 0
          0 0 0 0 0 0
          0 0 0 0 0 0
          0 0 0 0 0 0
          0 0 0 0 0 0
          0 0 0 0 0 0
          0 0 0 0 0 0
          0 0 0 0 0 0
          0 0 0 0 0 0
          0 0 0 0 0 0
          0 0 0 0 0 0
          0 0 0 0 0 0
          0 0 0 0 0 0
          0 0 0 0 0 0
          0 0 0 0 0 0
          0 0 0 0 0 0
          0 0 0 0 0 0
          0 0 0 0 0 0
          0 0 0 0 0 0
          0 0 0 0 0 0
          0 0 0 0 0 0
          0 0 0 0 0 0
          0 0 0 0 0 0
          0 0 0 0 0 0
          0 0 0 0 0 0
          0 0 0 0 0 0
          0 0 0 0 0 0
          0 0 0 0 0 0
          0 0 0 0 0 0
          0 0 0 0 0 0
          0 0 0 0 0 0
          0 0 0 0 0 0
          0 0 0 0 0 0
          0 0 0 0 0 0
          0 0 0 0 0 0
          0 0 0 0 0 0
          0 0 0 0 0 0
          0 0 0 0 0 0
          0 0 0 0 0 0
          0 0 0 0 0 0
          0 0 0 0 0 0
          0 0 0 0 0 0
          0 0 0 0 0 0
          0 0 0 0 0 0
          0 0 0 0 0 0
          0 0 0 0 0 0
          0 0 0 0 0 0
          0 0 0 0 0 0
          0 0 0 0 0 0
          0 0 0 0 0 0
          0 0 0 0 0 0
          0 0 0 0 0 0
          0 0 0 0 0 0
          0 0 0 0 0 0
          0 0 0 0 0 0
          0 0 0 0 0 0
          0 0 0 0 0 0
          0 0 0 0 0 0
          0 0 0 0 0 0
          0 0 0 0 0 0
          0 0 0 0 0 0
          0 0 0 0 0 0
          0 0 0 0 0 0
          0 0 0 0 0 0
          0 0 0 0 0 0
          0 0 0 0 0 0
          0 0 0 0 0 0
          0 0 0 0 0 0
          0 0 0 0 0 0
          0 0 0 0 0 0
          0 0 0 0 0 0
          0 0 0 0 0 0
          0 0 0 0 0 0
          0 0 0 0 0 0
          0 0 0 0 0 0
          0 0 0 0 0 0
          0 0 0 0 0 0
          0 0 0 0 0 0
          0 0 0 0 0 0
          0 0 0 0 0 0
          0 0 0 0 0 0
          0 0 0 0 0 0
          0 0 0 0 0 0
          0 0 0 0 0 0
          0 0 0 0 0 0
          0 0 0 0 0 0
          0 0 0 0 0 0
          0 0 0 0 0 0
          0 0 0 0 0 0
          0 0 0 0 0 0
          0 0 0 0 0 0
          0 0 0 0 0 0
          0 0 0 0 0 0
          0 0 0 0 0 0
          0 0 0 0 0 0
          0 0 0 0 0 0
          0 0 0 0 0 0
          0 0 0 0 0 0
          0 0 0 0 0 0
          0 0 0 0 0 0
          0 0 0 0 0 0
          0 0 0 0 0 0
          0 0 0 0 0 0
          0 0 0 0 0 0
          0 0 0 0 0 0
          0 0 0 0 0 0
          0 0 0 0 0 0
          0 0 0 0 0 0
          0 0 0 0 0 0
          0 0 0 0 0 0
          0 0 0 0 0 0
          0 0 0 0 0 0
          0 0 0 0 0 0
          0 0 0 0 0 0
          0 0 0 0 0 0
          0 0 0 0 0 0
          0 0 0 0 0 0
          0 0 0 0 0 0
          0 0 0 0 0 0
          0 0 0 0 0 0
          0 0 0 0 0 0
          0 0 0 0 0 0
          0 0 0 0 0 0
          0 0 0 0 0 0
          0 0 0 0 0 0
          0 0 0 0 0 0
          0 0 0 0 0 0
          0 0 0 0 0 0
          0 0 0 0 0 0
          0 0 0 0 0 0
          0 0 0 0 0 0
          0 0 0 0 0 0
          0 0 0 0 0 0
          0 0 0 0 0 0
          0 0 0 0 0 0
          0 0 0 0 0 0
          0 0 0 0 0 0
          0 0 0 0 0 0
          0 0 0 0 0 0
          0 0 0 0 0 0
          0 0 0 0 0 0
          0 0 0 0 0 0
          0 0 0 0 0 0
          0 0 0 0 0 0
          0 0 0 0 0 0
          0 0 0 0 0 0
          0 0 0 0 0 0
          0 0 0 0 0 0
          0 0 0 0 0 0
          0 0 0 0 0 0
          0 0 0 0 0 0
          0 0 0 0 0 0
          0 0 0 0 0 0
          0 0 0 0 0 0
          0 0 0 0 0 0
          0 0 0 0 0 0
          0 0 0 0 0 0
          0 0 0 0 0 0
          0 0 0 0 0 0
          0 0 0 0 0 0
          0 0 0 0 0 0
          0 0 0 0 0 0
          0 0 0 0 0 0
          0 0 0 0 0 0
          0 0 0 0 0 0
          0 0 0 0 0 0
          0 0 0 0 0 0
          0 0 0 0 0 0
          0 0 0 0 0 0
          0 0 0 0 0 0
          0 0 0 0 0 0
          0 0 0 0 0 0
          0 0 0 0 0 0
          0 0 0 0 0 0
          0 0 0 0 0 0
          0 0 0 0 0 0
          0 0 0 0 0 0
          0 0 0 0 0 0
          0 0 0 0 0 0
          0 0 0 0 0 0
          0 0 0 0 0 0
          0 0 0 0 0 0
          0 0 0 0 0 0
          0 0 0 0 0 0
          0 0 0 0 0 0
          0 0 0 0 0 0
          0 0 0 0 0 0
          0 0 0 0 0 0
          0 0 0 0 0 0
          0 0 0 0 0 0
          0 0 0 0 0 0
          0 0 0 0 0 0
          0 0 0 0 0 0
          0 0 0 0 0 0
          0 0 0 0 0 0
          0 0 0 0 0 0
          0 0 0 0 0 0
          0 0 0 0 0 0
          0 0 0 0 0 0
          0 0 0 0 0 0
          0 0 0 0 0 0
          0 0 0 0 0 0
          0 0 0 0 0 0
          0 0 0 0 0 0
          0 0 0 0 0 0
          0 0 0 0 0 0
          0 0 0 0 0 0
          0 0 0 0 0 0
          0 0 0 0 0 0
          0 0 0 0 0 0
          0 0 0 0 0 0
          0 0 0 0 0 0
          0 0 0 0 0 0
          0 0 0 0 0 0
          0 0 0 0 0 0
          0 0 0 0 0 0
          0 0 0 0 0 0
          0 0 0 0 0 0
          0 0 0 0 0 0
          0 0 0 0 0 0
          0 0 0 0 0 0
          0 0 0 0 0 0
          0 0 0 0 0 0
          0 0 0 0 0 0
          0 0 0 0 0 0
          0 0 0 0 0 0
          0 0 0 0 0 0
          0 0 0 0 0 0
          0 0 0 0 0 0
          0 0 0 0 0 0
          0 0 0 0 0 0
          0 0 0 0 0 0
          0 0 0 0 0 0
          0 0 0 0 0 0
          0 0 0 0 0 0
          0 0 0 0 0 0
          0 0 0 0 0 0
          0 0 0 0 0 0
          0 0 0 0 0 0
          0 0 0 0 0 0
          0 0 0 0 0 0
          0 0 0 0 0 0
          0 0 0 0 0 0
          0 0 0 0 0 0
          0 0 0 0 0 0
          0 0 0 0 0 0
          0 0 0 0 0 0
          0 0 0 0 0 0
          0 0 0 0 0 0
          0 0 0 0 0 0
          0 0 0 0 0 0
          0 0 0 0 0 0
          0 0 0 0 0 0
          0 0 0 0 0 0
          0 0 0 0 0 0
          0 0 0 0 0 0
          0 0 0 0 0 0
          0 0 0 0 0 0
          0 0 0 0 0 0
          0 0 0 0 0 0
          0 0 0 0 0 0
          0 0 0 0 0 0
          0 0 0 0 0 0
          0 0 0 0 0 0
          0 0 0 0 0 0
          0 0 0 0 0 0
          0 0 0 0 0 0
          0 0 0 0 0 0
          0 0 0 0 0 0
          0 0 0 0 0 0
          0 0 0 0 0 0
          0 0 0 0 0 0
          0 0 0 0 0 0
          0 0 0 0 0 0
          0 0 0 0 0 0
          0 0 0 0 0 0
          0 0 0 0 0 0
          0 0 0 0 0 0
          0 0 0 0 0 0
          0 0 0 0 0 0
          0 0 0 0 0 0
          0 0 0 0 0 0
          0 0 0 0 0 0
          0 0 0 0 0 0
          0 0 0 0 0 0
          0 0 0 0 0 0
          0 0 0 0 0 0
          0 0 0 0 0 0
          0 0 0 0 0 0
          0 0 0 0 0 0
          0 0 0 0 0 0
          0 0 0 0 0 0
          0 0 0 0 0 0
          0 0 0 0 0 0
          0 0 0 0 0 0
          0 0 0 0 0 0
          0 0 0 0 0 0
          0 0 0 0 0 0
          0 0 0 0 0 0
          0 0 0 0 0 0
          0 0 0 0 0 0
          0 0 0 0 0 0
          0 0 0 0 0 0
          0 0 0 0 0 0
          0 0 0 0 0 0
          0 0 0 0 0 0
          0 0 0 0 0 0
          0 0 0 0 0 0
          0 0 0 0 0 0
          0 0 0 0 0 0
          0 0 0 0 0 0
          0 0 0 0 0 0
          0 0 0 0 0 0
          0 0 0 0 0 0
          0 0 0 0 0 0
          0 0 0 0 0 0
          0 0 0 0 0 0
          0 0 0 0 0 0
          0 0 0 0 0 0
          0 0 0 0 0 0
          0 0 0 0 0 0
          0 0 0 0 0 0
          0 0 0 0 0 0
          0 0 0 0 0 0
          0 0 0 0 0 0
          0 0 0 0 0 0
          0 0 0 0 0 0
          0 0 0 0 0 0
          0 0 0 0 0 0
          0 0 0 0 0 0
          0 0 0 0 0 0
          0 0 0 0 0 0
          0 0 0 0 0 0
          0 0 0 0 0 0
          0 0 0 0 0 0
          0 0 0 0 0 0
          0 0 0 0 0 0
          0 0 0 0 0 0
          0 0 0 0 0 0
          0 0 0 0 0 0
          0 0 0 0 0 0
          0 0 0 0 0 0
          0 0 0 0 0 0
          0 0 0 0 0 0
          0 0 0 0 0 0
          0 0 0 0 0 0
          0 0 0 0 0 0
          0 0 0 0 0 0
          0 0 0 0 0 0
          0 0 0 0 0 0
          0 0 0 0 0 0
          0 0 0 0 0 0
          0 0 0 0 0 0
          0 0 0 0 0 0
          0 0 0 0 0 0
          0 0 0 0 0 0
          0 0 0 0 0 0
          0 0 0 0 0 0
          0 0 0 0 0 0
          0 0 0 0 0 0
          0 0 0 0 0 0
          0 0 0 0 0 0
          0 0 0 0 0 0
          0 0 0 0 0 0
          0 0 0 0 0 0
          0 0 0 0 0 0
          0 0 0 0 0 0
          0 0 0 0 0 0
          0 0 0 0 0 0
          0 0 0 0 0 0
          0 0 0 0 0 0
          0 0 0 0 0 0
          0 0 0 0 0 0
          0 0 0 0 0 0
          0 0 0 0 0 0
          0 0 0 0 0 0
          0 0 0 0 0 0
          0 0 0 0 0 0
          0 0 0 0 0 0
          0 0 0 0 0 0
          0 0 0 0 0 0
          0 0 0 0 0 0
          0 0 0 0 0 0
          0 0 0 0 0 0
          0 0 0 0 0 0
          0 0 0 0 0 0
          0 0 0 0 0 0
          0 0 0 0 0 0
          0 0 0 0 0 0
          0 0 0 0 0 0
          0 0 0 0 0 0
          0 0 0 0 0 0
          0 0 0 0 0 0
          0 0 0 0 0 0
          0 0 0 0 0 0
          0 0 0 0 0 0
          0 0 0 0 0 0
          0 0 0 0 0 0
          0 0 0 0 0 0
          0 0 0 0 0 0
          0 0 0 0 0 0
          0 0 0 0 0 0
          0 0 0 0 0 0
          0 0 0 0 0 0
          0 0 0 0 0 0
          0 0 0 0 0 0
          0 0 0 0 0 0
          0 0 0 0 0 0
          0 0 0 0 0 0
          0 0 0 0 0 0
          0 0 0 0 0 0
          0 0 0 0 0 0
          0 0 0 0 0 0
          0 0 0 0 0 0
          0 0 0 0 0 0
          0 0 0 0 0 0
          0 0 0 0 0 0
          0 0 0 0 0 0
          0 0 0 0 0 0
          0 0 0 0 0 0
          0 0 0 0 0 0
          0 0 0 0 0 0
          0 0 0 0 0 0
          0 0 0 0 0 0
          0 0 0 0 0 0
          0 0 0 0 0 0
          0 0 0 0 0 0
          0 0 0 0 0 0
          0 0 0 0 0 0
          0 0 0 0 0 0
          0 0 0 0 0 0
          0 0 0 0 0 0
          0 0 0 0 0 0
          0 0 0 0 0 0
          0 0 0 0 0 0
          0 0 0 0 0 0
          0 0 0 0 0 0
          0 0 0 0 0 0
          0 0 0 0 0 0
          0 0 0 0 0 0
          0 0 0 0 0 0
          0 0 0 0 0 0
          0 0 0 0 0 0
          0 0 0 0 0 0
          0 0 0 0 0 0
          0 0 0 0 0 0
          0 0 0 0 0 0
          0 0 0 0 0 0
          0 0 0 0 0 0
          0 0 0 0 0 0
          0 0 0 0 0 0
          0 0 0 0 0 0
          0 0 0 0 0 0
          0 0 0 0 0 0
          0 0 0 0 0 0
          0 0 0 0 0 0
          0 0 0 0 0 0
          0 0 0 0 0 0
          0 0 0 0 0 0
          0 0 0 0 0 0
          0 0 0 0 0 0
          0 0 0 0 0 0
          0 0 0 0 0 0
          0 0 0 0 0 0
          0 0 0 0 0 0
          0 0 0 0 0 0
          0 0 0 0 0 0
          0 0 0 0 0 0
          0 0 0 0 0 0
          0 0 0 0 0 0
          0 0 0 0 0 0
          0 0 0 0 0 0
          0 0 0 0 0 0
          0 0 0 0 0 0
          0 0 0 0 0 0
          0 0 0 0 0 0
          0 0 0 0 0 0
          0 0 0 0 0 0
          0 0 0 0 0 0
          0 0 0 0 0 0
          0 0 0 0 0 0
          0 0 0 0 0 0
          0 0 0 0 0 0
          0 0 0 0 0 0
          0 0 0 0 0 0
          0 0 0 0 0 0
          0 0 0 0 0 0
          0 0 0 0 0 0
          0 0 0 0 0 0
          0 0 0 0 0 0
          0 0 0 0 0 0
          0 0 0 0 0 0
          0 0 0 0 0 0
          0 0 0 0 0 0
          0 0 0 0 0 0
          0 0 0 0 0 0
          0 0 0 0 0 0
          0 0 0 0 0 0
          0 0 0 0 0 0
          0 0 0 0 0 0
          0 0 0 0 0 0
          0 0 0 0 0 0
          0 0 0 0 0 0
          0 0 0 0 0 0
          0 0 0 0 0 0
          0 0 0 0 0 0
          0 0 0 0 0 0
          0 0 0 0 0 0
          0 0 0 0 0 0
          0 0 0 0 0 0
          0 0 0 0 0 0
          0 0 0 0 0 0
          0 0 0 0 0 0
          0 0 0 0 0 0
          0 0 0 0 0 0
          0 0 0 0 0 0
          0 0 0 0 0 0
          0 0 0 0 0 0
          0 0 0 0 0 0
          0 0 0 0 0 0
          0 0 0 0 0 0
          0 0 0 0 0 0
          0 0 0 0 0 0
          0 0 0 0 0 0
          0 0 0 0 0 0
          0 0 0 0 0 0
          0 0 0 0 0 0
          0 0 0 0 0 0
          0 0 0 0 0 0
          0 0 0 0 0 0
          0 0 0 0 0 0
          0 0 0 0 0 0
          0 0 0 0 0 0
          0 0 0 0 0 0
          0 0 0 0 0 0
          0 0 0 0 0 0
          0 0 0 0 0 0
          0 0 0 0 0 0
          0 0 0 0 0 0
          0 0 0 0 0 0
          0 0 0 0 0 0
          0 0 0 0 0 0
          0 0 0 0 0 0
          0 0 0 0 0 0
          0 0 0 0 0 0
          0 0 0 0 0 0
          0 0 0 0 0 0
          0 0 0 0 0 0
          0 0 0 0 0 0
          0 0 0 0 0 0
          0 0 0 0 0 0
          0 0 0 0 0 0
          0 0 0 0 0 0
          0 0 0 0 0 0
          0 0 0 0 0 0
          0 0 0 0 0 0
          0 0 0 0 0 0
          0 0 0 0 0 0
          0 0 0 0 0 0
          0 0 0 0 0 0
          0 0 0 0 0 0
          0 0 0 0 0 0
          0 0 0 0 0 0
          0 0 0 0 0 0
          0 0 0 0 0 0
          0 0 0 0 0 0
          0 0 0 0 0 0
          0 0 0 0 0 0
          0 0 0 0 0 0
          0 0 0 0 0 0
          0 0 0 0 0 0
          0 0 0 0 0 0
          0 0 0 0 0 0
          0 0 0 0 0 0
          0 0 0 0 0 0
          0 0 0 0 0 0
          0 0 0 0 0 0
          0 0 0 0 0 0
          0 0 0 0 0 0
          0 0 0 0 0 0
          0 0 0 0 0 0
          0 0 0 0 0 0
          0 0 0 0 0 0
          0 0 0 0 0 0
          0 0 0 0 0 0
          0 0 0 0 0 0
          0 0 0 0 0 0
          0 0 0 0 0 0
          0 0 0 0 0 0
          0 0 0 0 0 0
          0 0 0 0 0 0
          0 0 0 0 0 0
          0 0 0 0 0 0
          0 0 0 0 0 0
          0 0 0 0 0 0
          0 0 0 0 0 0
          0 0 0 0 0 0
          0 0 0 0 0 0
          0 0 0 0 0 0
          0 0 0 0 0 0
          0 0 0 0 0 0
          0 0 0 0 0 0
          0 0 0 0 0 0
          0 0 0 0 0 0
          0 0 0 0 0 0
          0 0 0 0 0 0
          0 0 0 0 0 0
          0 0 0 0 0 0
          0 0 0 0 0 0
          0 0 0 0 0 0
          0 0 0 0 0 0
          0 0 0 0 0 0
          0 0 0 0 0 0
          0 0 0 0 0 0
          0 0 0 0 0 0
          0 0 0 0 0 0
          0 0 0 0 0 0
          0 0 0 0 0 0
          0 0 0 0 0 0
          0 0 0 0 0 0
          0 0 0 0 0 0
          0 0 0 0 0 0
          0 0 0 0 0 0
          0 0 0 0 0 0
          0 0 0 0 0 0
          0 0 0 0 0 0
          0 0 0 0 0 0
          0 0 0 0 0 0
          0 0 0 0 0 0
          0 0 0 0 0 0
          0 0 0 0 0 0
          0 0 0 0 0 0
          0 0 0 0 0 0
          0 0 0 0 0 0
          0 0 0 0 0 0
          0 0 0 0 0 0
          0 0 0 0 0 0
          0 0 0 0 0 0
          0 0 0 0 0 0
          0 0 0 0 0 0
          0 0 0 0 0 0
          0 0 0 0 0 0
          0 0 0 0 0 0
          0 0 0 0 0 0
          0 0 0 0 0 0
          0 0 0 0 0 0
          0 0 0 0 0 0
          0 0 0 0 0 0
          0 0 0 0 0 0
          0 0 0 0 0 0
          0 0 0 0 0 0
          0 0 0 0 0 0
          0 0 0 0 0 0
          0 0 0 0 0 0
          0 0 0 0 0 0
          0 0 0 0 0 0
          0 0 0 0 0 0
          0 0 0 0 0 0
          0 0 0 0 0 0
          0 0 0 0 0 0
          0 0 0 0 0 0
          0 0 0 0 0 0
          0 0 0 0 0 0
          0 0 0 0 0 0
          0 0 0 0 0 0
          0 0 0 0 0 0
          0 0 0 0 0 0
          0 0 0 0 0 0
          0 0 0 0 0 0
          0 0 0 0 0 0
          0 0 0 0 0 0
          0 0 0 0 0 0
          0 0 0 0 0 0
          0 0 0 0 0 0
          0 0 0 0 0 0
          0 0 0 0 0 0
          0 0 0 0 0 0
          0 0 0 0 0 0
          0 0 0 0 0 0
          0 0 0 0 0 0
          0 0 0 0 0 0
          0 0 0 0 0 0
          0 0 0 0 0 0
          0 0 0 0 0 0
          0 0 0 0 0 0
          0 0 0 0 0 0
          0 0 0 0 0 0
          0 0 0 0 0 0
          0 0 0 0 0 0
          0 0 0 0 0 0
          0 0 0 0 0 0
          0 0 0 0 0 0
          0 0 0 0 0 0
          0 0 0 0 0 0
          0 0 0 0 0 0
          0 0 0 0 0 0
          0 0 0 0 0 0
          0 0 0 0 0 0
          0 0 0 0 0 0
          0 0 0 0 0 0
          0 0 0 0 0 0
          0 0 0 0 0 0
          0 0 0 0 0 0
          0 0 0 0 0 0
          0 0 0 0 0 0
          0 0 0 0 0 0
          0 0 0 0 0 0
          0 0 0 0 0 0
          0 0 0 0 0 0
          0 0 0 0 0 0
          0 0 0 0 0 0
          0 0 0 0 0 0
          0 0 0 0 0 0
          0 0 0 0 0 0
          0 0 0 0 0 0
          0 0 0 0 0 0
          0 0 0 0 0 0
          0 0 0 0 0 0
          0 0 0 0 0 0
          0 0 0 0 0 0
          0 0 0 0 0 0
          0 0 0 0 0 0
          0 0 0 0 0 0
          0 0 0 0 0 0
          0 0 0 0 0 0
          0 0 0 0 0 0
          0 0 0 0 0 0
          0 0 0 0 0 0
          0 0 0 0 0 0
          0 0 0 0 0 0
          0 0 0 0 0 0
          0 0 0 0 0 0
          0 0 0 0 0 0
          0 0 0 0 0 0
          0 0 0 0 0 0
          0 0 0 0 0 0
          0 0 0 0 0 0
          0 0 0 0 0 0
          0 0 0 0 0 0
          0 0 0 0 0 0
          0 0 0 0 0 0
          0 0 0 0 0 0
          0 0 0 0 0 0
          0 0 0 0 0 0
          0 0 0 0 0 0
          0 0 0 0 0 0
          0 0 0 0 0 0
          0 0 0 0 0 0
          0 0 0 0 0 0
          0 0 0 0 0 0
          0 0 0 0 0 0
          0 0 0 0 0 0
          0 0 0 0 0 0
          0 0 0 0 0 0
          0 0 0 0 0 0
          0 0 0 0 0 0
          0 0 0 0 0 0
          0 0 0 0 0 0
          0 0 0 0 0 0
          0 0 0 0 0 0
          0 0 0 0 0 0
          0 0 0 0 0 0
          0 0 0 0 0 0
          0 0 0 0 0 0
          0 0 0 0 0 0
          0 0 0 0 0 0
          0 0 0 0 0 0
          0 0 0 0 0 0
          0 0 0 0 0 0
          0 0 0 0 0 0
          0 0 0 0
        </DataArray>
        <DataArray type="Float64" Name="DisplacementSolutionVector" NumberOfComponents="3" format="ascii" RangeMin="0" RangeMax="0">
          0 0 0 0 0 0
          0 0 0 0 0 0
          0 0 0 0 0 0
          0 0 0 0 0 0
          0 0 0 0 0 0
          0 0 0 0 0 0
          0 0 0 0 0 0
          0 0 0 0 0 0
          0 0 0 0 0 0
          0 0 0 0 0 0
          0 0 0 0 0 0
          0 0 0 0 0 0
          0 0 0 0 0 0
          0 0 0 0 0 0
          0 0 0 0 0 0
          0 0 0 0 0 0
          0 0 0 0 0 0
          0 0 0 0 0 0
          0 0 0 0 0 0
          0 0 0 0 0 0
          0 0 0 0 0 0
          0 0 0 0 0 0
          0 0 0 0 0 0
          0 0 0 0 0 0
          0 0 0 0 0 0
          0 0 0 0 0 0
          0 0 0 0 0 0
          0 0 0 0 0 0
          0 0 0 0 0 0
          0 0 0 0 0 0
          0 0 0 0 0 0
          0 0 0 0 0 0
          0 0 0 0 0 0
          0 0 0 0 0 0
          0 0 0 0 0 0
          0 0 0 0 0 0
          0 0 0 0 0 0
          0 0 0 0 0 0
          0 0 0 0 0 0
          0 0 0 0 0 0
          0 0 0 0 0 0
          0 0 0 0 0 0
          0 0 0 0 0 0
          0 0 0 0 0 0
          0 0 0 0 0 0
          0 0 0 0 0 0
          0 0 0 0 0 0
          0 0 0 0 0 0
          0 0 0 0 0 0
          0 0 0 0 0 0
          0 0 0 0 0 0
          0 0 0 0 0 0
          0 0 0 0 0 0
          0 0 0 0 0 0
          0 0 0 0 0 0
          0 0 0 0 0 0
          0 0 0 0 0 0
          0 0 0 0 0 0
          0 0 0 0 0 0
          0 0 0 0 0 0
          0 0 0 0 0 0
          0 0 0 0 0 0
          0 0 0 0 0 0
          0 0 0 0 0 0
          0 0 0 0 0 0
          0 0 0 0 0 0
          0 0 0 0 0 0
          0 0 0 0 0 0
          0 0 0 0 0 0
          0 0 0 0 0 0
          0 0 0 0 0 0
          0 0 0 0 0 0
          0 0 0 0 0 0
          0 0 0 0 0 0
          0 0 0 0 0 0
          0 0 0 0 0 0
          0 0 0 0 0 0
          0 0 0 0 0 0
          0 0 0 0 0 0
          0 0 0 0 0 0
          0 0 0 0 0 0
          0 0 0 0 0 0
          0 0 0 0 0 0
          0 0 0 0 0 0
          0 0 0 0 0 0
          0 0 0 0 0 0
          0 0 0 0 0 0
          0 0 0 0 0 0
          0 0 0 0 0 0
          0 0 0 0 0 0
          0 0 0 0 0 0
          0 0 0 0 0 0
          0 0 0 0 0 0
          0 0 0 0 0 0
          0 0 0 0 0 0
          0 0 0 0 0 0
          0 0 0 0 0 0
          0 0 0 0 0 0
          0 0 0 0 0 0
          0 0 0 0 0 0
          0 0 0 0 0 0
          0 0 0 0 0 0
          0 0 0 0 0 0
          0 0 0 0 0 0
          0 0 0 0 0 0
          0 0 0 0 0 0
          0 0 0 0 0 0
          0 0 0 0 0 0
          0 0 0 0 0 0
          0 0 0 0 0 0
          0 0 0 0 0 0
          0 0 0 0 0 0
          0 0 0 0 0 0
          0 0 0 0 0 0
          0 0 0 0 0 0
          0 0 0 0 0 0
          0 0 0 0 0 0
          0 0 0 0 0 0
          0 0 0 0 0 0
          0 0 0 0 0 0
          0 0 0 0 0 0
          0 0 0 0 0 0
          0 0 0 0 0 0
          0 0 0 0 0 0
          0 0 0 0 0 0
          0 0 0 0 0 0
          0 0 0 0 0 0
          0 0 0 0 0 0
          0 0 0 0 0 0
          0 0 0 0 0 0
          0 0 0 0 0 0
          0 0 0 0 0 0
          0 0 0 0 0 0
          0 0 0 0 0 0
          0 0 0 0 0 0
          0 0 0 0 0 0
          0 0 0 0 0 0
          0 0 0 0 0 0
          0 0 0 0 0 0
          0 0 0 0 0 0
          0 0 0 0 0 0
          0 0 0 0 0 0
          0 0 0 0 0 0
          0 0 0 0 0 0
          0 0 0 0 0 0
          0 0 0 0 0 0
          0 0 0 0 0 0
          0 0 0 0 0 0
          0 0 0 0 0 0
          0 0 0 0 0 0
          0 0 0 0 0 0
          0 0 0 0 0 0
          0 0 0 0 0 0
          0 0 0 0 0 0
          0 0 0 0 0 0
          0 0 0 0 0 0
          0 0 0 0 0 0
          0 0 0 0 0 0
          0 0 0 0 0 0
          0 0 0 0 0 0
          0 0 0 0 0 0
          0 0 0 0 0 0
          0 0 0 0 0 0
          0 0 0 0 0 0
          0 0 0 0 0 0
          0 0 0 0 0 0
          0 0 0 0 0 0
          0 0 0 0 0 0
          0 0 0 0 0 0
          0 0 0 0 0 0
          0 0 0 0 0 0
          0 0 0 0 0 0
          0 0 0 0 0 0
          0 0 0 0 0 0
          0 0 0 0 0 0
          0 0 0 0 0 0
          0 0 0 0 0 0
          0 0 0 0 0 0
          0 0 0 0 0 0
          0 0 0 0 0 0
          0 0 0 0 0 0
          0 0 0 0 0 0
          0 0 0 0 0 0
          0 0 0 0 0 0
          0 0 0 0 0 0
          0 0 0 0 0 0
          0 0 0 0 0 0
          0 0 0 0 0 0
          0 0 0 0 0 0
          0 0 0 0 0 0
          0 0 0 0 0 0
          0 0 0 0 0 0
          0 0 0 0 0 0
          0 0 0 0 0 0
          0 0 0 0 0 0
          0 0 0 0 0 0
          0 0 0 0 0 0
          0 0 0 0 0 0
          0 0 0 0 0 0
          0 0 0 0 0 0
          0 0 0 0 0 0
          0 0 0 0 0 0
          0 0 0 0 0 0
          0 0 0 0 0 0
          0 0 0 0 0 0
          0 0 0 0 0 0
          0 0 0 0 0 0
          0 0 0 0 0 0
          0 0 0 0 0 0
          0 0 0 0 0 0
          0 0 0 0 0 0
          0 0 0 0 0 0
          0 0 0 0 0 0
          0 0 0 0 0 0
          0 0 0 0 0 0
          0 0 0 0 0 0
          0 0 0 0 0 0
          0 0 0 0 0 0
          0 0 0 0 0 0
          0 0 0 0 0 0
          0 0 0 0 0 0
          0 0 0 0 0 0
          0 0 0 0 0 0
          0 0 0 0 0 0
          0 0 0 0 0 0
          0 0 0 0 0 0
          0 0 0 0 0 0
          0 0 0 0 0 0
          0 0 0 0 0 0
          0 0 0 0 0 0
          0 0 0 0 0 0
          0 0 0 0 0 0
          0 0 0 0 0 0
          0 0 0 0 0 0
          0 0 0 0 0 0
          0 0 0 0 0 0
          0 0 0 0 0 0
          0 0 0 0 0 0
          0 0 0 0 0 0
          0 0 0 0 0 0
          0 0 0 0 0 0
          0 0 0 0 0 0
          0 0 0 0 0 0
          0 0 0 0 0 0
          0 0 0 0 0 0
          0 0 0 0 0 0
          0 0 0 0 0 0
          0 0 0 0 0 0
          0 0 0 0 0 0
          0 0 0 0 0 0
          0 0 0 0 0 0
          0 0 0 0 0 0
          0 0 0 0 0 0
          0 0 0 0 0 0
          0 0 0 0 0 0
          0 0 0 0 0 0
          0 0 0 0 0 0
          0 0 0 0 0 0
          0 0 0 0 0 0
          0 0 0 0 0 0
          0 0 0 0 0 0
          0 0 0 0 0 0
          0 0 0 0 0 0
          0 0 0 0 0 0
          0 0 0 0 0 0
          0 0 0 0 0 0
          0 0 0 0 0 0
          0 0 0 0 0 0
          0 0 0 0 0 0
          0 0 0 0 0 0
          0 0 0 0 0 0
          0 0 0 0 0 0
          0 0 0 0 0 0
          0 0 0 0 0 0
          0 0 0 0 0 0
          0 0 0 0 0 0
          0 0 0 0 0 0
          0 0 0 0 0 0
          0 0 0 0 0 0
          0 0 0 0 0 0
          0 0 0 0 0 0
          0 0 0 0 0 0
          0 0 0 0 0 0
          0 0 0 0 0 0
          0 0 0 0 0 0
          0 0 0 0 0 0
          0 0 0 0 0 0
          0 0 0 0 0 0
          0 0 0 0 0 0
          0 0 0 0 0 0
          0 0 0 0 0 0
          0 0 0 0 0 0
          0 0 0 0 0 0
          0 0 0 0 0 0
          0 0 0 0 0 0
          0 0 0 0 0 0
          0 0 0 0 0 0
          0 0 0 0 0 0
          0 0 0 0 0 0
          0 0 0 0 0 0
          0 0 0 0 0 0
          0 0 0 0 0 0
          0 0 0 0 0 0
          0 0 0 0 0 0
          0 0 0 0 0 0
          0 0 0 0 0 0
          0 0 0 0 0 0
          0 0 0 0 0 0
          0 0 0 0 0 0
          0 0 0 0 0 0
          0 0 0 0 0 0
          0 0 0 0 0 0
          0 0 0 0 0 0
          0 0 0 0 0 0
          0 0 0 0 0 0
          0 0 0 0 0 0
          0 0 0 0 0 0
          0 0 0 0 0 0
          0 0 0 0 0 0
          0 0 0 0 0 0
          0 0 0 0 0 0
          0 0 0 0 0 0
          0 0 0 0 0 0
          0 0 0 0 0 0
          0 0 0 0 0 0
          0 0 0 0 0 0
          0 0 0 0 0 0
          0 0 0 0 0 0
          0 0 0 0 0 0
          0 0 0 0 0 0
          0 0 0 0 0 0
          0 0 0 0 0 0
          0 0 0 0 0 0
          0 0 0 0 0 0
          0 0 0 0 0 0
          0 0 0 0 0 0
          0 0 0 0 0 0
          0 0 0 0 0 0
          0 0 0 0 0 0
          0 0 0 0 0 0
          0 0 0 0 0 0
          0 0 0 0 0 0
          0 0 0 0 0 0
          0 0 0 0 0 0
          0 0 0 0 0 0
          0 0 0 0 0 0
          0 0 0 0 0 0
          0 0 0 0 0 0
          0 0 0 0 0 0
          0 0 0 0 0 0
          0 0 0 0 0 0
          0 0 0 0 0 0
          0 0 0 0 0 0
          0 0 0 0 0 0
          0 0 0 0 0 0
          0 0 0 0 0 0
          0 0 0 0 0 0
          0 0 0 0 0 0
          0 0 0 0 0 0
          0 0 0 0 0 0
          0 0 0 0 0 0
          0 0 0 0 0 0
          0 0 0 0 0 0
          0 0 0 0 0 0
          0 0 0 0 0 0
          0 0 0 0 0 0
          0 0 0 0 0 0
          0 0 0 0 0 0
          0 0 0 0 0 0
          0 0 0 0 0 0
          0 0 0 0 0 0
          0 0 0 0 0 0
          0 0 0 0 0 0
          0 0 0 0 0 0
          0 0 0 0 0 0
          0 0 0 0 0 0
          0 0 0 0 0 0
          0 0 0 0 0 0
          0 0 0 0 0 0
          0 0 0 0 0 0
          0 0 0 0 0 0
          0 0 0 0 0 0
          0 0 0 0 0 0
          0 0 0 0 0 0
          0 0 0 0 0 0
          0 0 0 0 0 0
          0 0 0 0 0 0
          0 0 0 0 0 0
          0 0 0 0 0 0
          0 0 0 0 0 0
          0 0 0 0 0 0
          0 0 0 0 0 0
          0 0 0 0 0 0
          0 0 0 0 0 0
          0 0 0 0 0 0
          0 0 0 0 0 0
          0 0 0 0 0 0
          0 0 0 0 0 0
          0 0 0 0 0 0
          0 0 0 0 0 0
          0 0 0 0 0 0
          0 0 0 0 0 0
          0 0 0 0 0 0
          0 0 0 0 0 0
          0 0 0 0 0 0
          0 0 0 0 0 0
          0 0 0 0 0 0
          0 0 0 0 0 0
          0 0 0 0 0 0
          0 0 0 0 0 0
          0 0 0 0 0 0
          0 0 0 0 0 0
          0 0 0 0 0 0
          0 0 0 0 0 0
          0 0 0 0 0 0
          0 0 0 0 0 0
          0 0 0 0 0 0
          0 0 0 0 0 0
          0 0 0 0 0 0
          0 0 0 0 0 0
          0 0 0 0 0 0
          0 0 0 0 0 0
          0 0 0 0 0 0
          0 0 0 0 0 0
          0 0 0 0 0 0
          0 0 0 0 0 0
          0 0 0 0 0 0
          0 0 0 0 0 0
          0 0 0 0 0 0
          0 0 0 0 0 0
          0 0 0 0 0 0
          0 0 0 0 0 0
          0 0 0 0 0 0
          0 0 0 0 0 0
          0 0 0 0 0 0
          0 0 0 0 0 0
          0 0 0 0 0 0
          0 0 0 0 0 0
          0 0 0 0 0 0
          0 0 0 0 0 0
          0 0 0 0 0 0
          0 0 0 0 0 0
          0 0 0 0 0 0
          0 0 0 0 0 0
          0 0 0 0 0 0
          0 0 0 0 0 0
          0 0 0 0 0 0
          0 0 0 0 0 0
          0 0 0 0 0 0
          0 0 0 0 0 0
          0 0 0 0 0 0
          0 0 0 0 0 0
          0 0 0 0 0 0
          0 0 0 0 0 0
          0 0 0 0 0 0
          0 0 0 0 0 0
          0 0 0 0 0 0
          0 0 0 0 0 0
          0 0 0 0 0 0
          0 0 0 0 0 0
          0 0 0 0 0 0
          0 0 0 0 0 0
          0 0 0 0 0 0
          0 0 0 0 0 0
          0 0 0 0 0 0
          0 0 0 0 0 0
          0 0 0 0 0 0
          0 0 0 0 0 0
          0 0 0 0 0 0
          0 0 0 0 0 0
          0 0 0 0 0 0
          0 0 0 0 0 0
          0 0 0 0 0 0
          0 0 0 0 0 0
          0 0 0 0 0 0
          0 0 0 0 0 0
          0 0 0 0 0 0
          0 0 0 0 0 0
          0 0 0 0 0 0
          0 0 0 0 0 0
          0 0 0 0 0 0
          0 0 0 0 0 0
          0 0 0 0 0 0
          0 0 0 0 0 0
          0 0 0 0 0 0
          0 0 0 0 0 0
          0 0 0 0 0 0
          0 0 0 0 0 0
          0 0 0 0 0 0
          0 0 0 0 0 0
          0 0 0 0 0 0
          0 0 0 0 0 0
          0 0 0 0 0 0
          0 0 0 0 0 0
          0 0 0 0 0 0
          0 0 0 0 0 0
          0 0 0 0 0 0
          0 0 0 0 0 0
          0 0 0 0 0 0
          0 0 0 0 0 0
          0 0 0 0 0 0
          0 0 0 0 0 0
          0 0 0 0 0 0
          0 0 0 0 0 0
          0 0 0 0 0 0
          0 0 0 0 0 0
          0 0 0 0 0 0
          0 0 0 0 0 0
          0 0 0 0 0 0
          0 0 0 0 0 0
          0 0 0 0 0 0
          0 0 0 0 0 0
          0 0 0 0 0 0
          0 0 0 0 0 0
          0 0 0 0 0 0
          0 0 0 0 0 0
          0 0 0 0 0 0
          0 0 0 0 0 0
          0 0 0 0 0 0
          0 0 0 0 0 0
          0 0 0 0 0 0
          0 0 0 0 0 0
          0 0 0 0 0 0
          0 0 0 0 0 0
          0 0 0 0 0 0
          0 0 0 0 0 0
          0 0 0 0 0 0
          0 0 0 0 0 0
          0 0 0 0 0 0
          0 0 0 0 0 0
          0 0 0 0 0 0
          0 0 0 0 0 0
          0 0 0 0 0 0
          0 0 0 0 0 0
          0 0 0 0 0 0
          0 0 0 0 0 0
          0 0 0 0 0 0
          0 0 0 0 0 0
          0 0 0 0 0 0
          0 0 0 0 0 0
          0 0 0 0 0 0
          0 0 0 0 0 0
          0 0 0 0 0 0
          0 0 0 0 0 0
          0 0 0 0 0 0
          0 0 0 0 0 0
          0 0 0 0 0 0
          0 0 0 0 0 0
          0 0 0 0 0 0
          0 0 0 0 0 0
          0 0 0 0 0 0
          0 0 0 0 0 0
          0 0 0 0 0 0
          0 0 0 0 0 0
          0 0 0 0 0 0
          0 0 0 0 0 0
          0 0 0 0 0 0
          0 0 0 0 0 0
          0 0 0 0 0 0
          0 0 0 0 0 0
          0 0 0 0 0 0
          0 0 0 0 0 0
          0 0 0 0 0 0
          0 0 0 0 0 0
          0 0 0 0 0 0
          0 0 0 0 0 0
          0 0 0 0 0 0
          0 0 0 0 0 0
          0 0 0 0 0 0
          0 0 0 0 0 0
          0 0 0 0 0 0
          0 0 0 0 0 0
          0 0 0 0 0 0
          0 0 0 0 0 0
          0 0 0 0 0 0
          0 0 0 0 0 0
          0 0 0 0 0 0
          0 0 0 0 0 0
          0 0 0 0 0 0
          0 0 0 0 0 0
          0 0 0 0 0 0
          0 0 0 0 0 0
          0 0 0 0 0 0
          0 0 0 0 0 0
          0 0 0 0 0 0
          0 0 0 0 0 0
          0 0 0 0 0 0
          0 0 0 0 0 0
          0 0 0 0 0 0
          0 0 0 0 0 0
          0 0 0 0 0 0
          0 0 0 0 0 0
          0 0 0 0 0 0
          0 0 0 0 0 0
          0 0 0 0 0 0
          0 0 0 0 0 0
          0 0 0 0 0 0
          0 0 0 0 0 0
          0 0 0 0 0 0
          0 0 0 0 0 0
          0 0 0 0 0 0
          0 0 0 0 0 0
          0 0 0 0 0 0
          0 0 0 0 0 0
          0 0 0 0 0 0
          0 0 0 0 0 0
          0 0 0 0 0 0
          0 0 0 0 0 0
          0 0 0 0 0 0
          0 0 0 0 0 0
          0 0 0 0 0 0
          0 0 0 0 0 0
          0 0 0 0 0 0
          0 0 0 0 0 0
          0 0 0 0 0 0
          0 0 0 0 0 0
          0 0 0 0 0 0
          0 0 0 0 0 0
          0 0 0 0 0 0
          0 0 0 0 0 0
          0 0 0 0 0 0
          0 0 0 0 0 0
          0 0 0 0 0 0
          0 0 0 0 0 0
          0 0 0 0 0 0
          0 0 0 0 0 0
          0 0 0 0 0 0
          0 0 0 0 0 0
          0 0 0 0 0 0
          0 0 0 0 0 0
          0 0 0 0 0 0
          0 0 0 0 0 0
          0 0 0 0 0 0
          0 0 0 0 0 0
          0 0 0 0 0 0
          0 0 0 0 0 0
          0 0 0 0 0 0
          0 0 0 0 0 0
          0 0 0 0 0 0
          0 0 0 0 0 0
          0 0 0 0 0 0
          0 0 0 0 0 0
          0 0 0 0 0 0
          0 0 0 0 0 0
          0 0 0 0 0 0
          0 0 0 0 0 0
          0 0 0 0 0 0
          0 0 0 0 0 0
          0 0 0 0 0 0
          0 0 0 0 0 0
          0 0 0 0 0 0
          0 0 0 0 0 0
          0 0 0 0 0 0
          0 0 0 0 0 0
          0 0 0 0 0 0
          0 0 0 0 0 0
          0 0 0 0 0 0
          0 0 0 0 0 0
          0 0 0 0 0 0
          0 0 0 0 0 0
          0 0 0 0 0 0
          0 0 0 0 0 0
          0 0 0 0 0 0
          0 0 0 0 0 0
          0 0 0 0 0 0
          0 0 0 0 0 0
          0 0 0 0 0 0
          0 0 0 0 0 0
          0 0 0 0 0 0
          0 0 0 0 0 0
          0 0 0 0 0 0
          0 0 0 0 0 0
          0 0 0 0 0 0
          0 0 0 0 0 0
          0 0 0 0 0 0
          0 0 0 0 0 0
          0 0 0 0 0 0
          0 0 0 0 0 0
          0 0 0 0 0 0
          0 0 0 0 0 0
          0 0 0 0 0 0
          0 0 0 0 0 0
          0 0 0 0 0 0
          0 0 0 0 0 0
          0 0 0 0 0 0
          0 0 0 0 0 0
          0 0 0 0 0 0
          0 0 0 0 0 0
          0 0 0 0 0 0
          0 0 0 0 0 0
          0 0 0 0 0 0
          0 0 0 0 0 0
          0 0 0 0 0 0
          0 0 0 0 0 0
          0 0 0 0 0 0
          0 0 0 0 0 0
          0 0 0 0 0 0
          0 0 0 0 0 0
          0 0 0 0 0 0
          0 0 0 0 0 0
          0 0 0 0 0 0
          0 0 0 0 0 0
          0 0 0 0 0 0
          0 0 0 0 0 0
          0 0 0 0 0 0
          0 0 0 0 0 0
          0 0 0 0 0 0
          0 0 0 0 0 0
          0 0 0 0 0 0
          0 0 0 0 0 0
          0 0 0 0 0 0
          0 0 0 0 0 0
          0 0 0 0 0 0
          0 0 0 0 0 0
          0 0 0 0 0 0
          0 0 0 0 0 0
          0 0 0 0 0 0
          0 0 0 0 0 0
          0 0 0 0 0 0
          0 0 0 0 0 0
          0 0 0 0 0 0
          0 0 0 0 0 0
          0 0 0 0 0 0
          0 0 0 0 0 0
          0 0 0 0 0 0
          0 0 0 0 0 0
          0 0 0 0 0 0
          0 0 0 0 0 0
          0 0 0 0 0 0
          0 0 0 0 0 0
          0 0 0 0 0 0
          0 0 0 0 0 0
          0 0 0 0 0 0
          0 0 0 0 0 0
          0 0 0 0 0 0
          0 0 0 0 0 0
          0 0 0 0 0 0
          0 0 0 0 0 0
          0 0 0 0 0 0
          0 0 0 0 0 0
          0 0 0 0 0 0
          0 0 0 0 0 0
          0 0 0 0 0 0
          0 0 0 0 0 0
          0 0 0 0 0 0
          0 0 0 0 0 0
          0 0 0 0 0 0
          0 0 0 0 0 0
          0 0 0 0 0 0
          0 0 0 0 0 0
          0 0 0 0 0 0
          0 0 0 0 0 0
          0 0 0 0 0 0
          0 0 0 0 0 0
          0 0 0 0 0 0
          0 0 0 0 0 0
          0 0 0 0 0 0
          0 0 0 0 0 0
          0 0 0 0 0 0
          0 0 0 0 0 0
          0 0 0 0 0 0
          0 0 0 0 0 0
          0 0 0 0 0 0
          0 0 0 0 0 0
          0 0 0 0 0 0
          0 0 0 0 0 0
          0 0 0 0 0 0
          0 0 0 0 0 0
          0 0 0 0 0 0
          0 0 0 0 0 0
          0 0 0 0 0 0
          0 0 0 0 0 0
          0 0 0 0 0 0
          0 0 0 0 0 0
          0 0 0 0 0 0
          0 0 0 0 0 0
          0 0 0 0 0 0
          0 0 0 0 0 0
          0 0 0 0 0 0
          0 0 0 0 0 0
          0 0 0 0 0 0
          0 0 0 0 0 0
          0 0 0 0 0 0
          0 0 0 0 0 0
          0 0 0 0 0 0
          0 0 0 0 0 0
          0 0 0 0 0 0
          0 0 0 0 0 0
          0 0 0 0 0 0
          0 0 0 0 0 0
          0 0 0 0 0 0
          0 0 0 0 0 0
          0 0 0 0 0 0
          0 0 0 0 0 0
          0 0 0 0 0 0
          0 0 0 0 0 0
          0 0 0 0 0 0
          0 0 0 0 0 0
          0 0 0 0 0 0
          0 0 0 0 0 0
          0 0 0 0 0 0
          0 0 0 0 0 0
          0 0 0 0 0 0
          0 0 0 0 0 0
          0 0 0 0 0 0
          0 0 0 0 0 0
          0 0 0 0 0 0
          0 0 0 0 0 0
          0 0 0 0 0 0
          0 0 0 0 0 0
          0 0 0 0 0 0
          0 0 0 0 0 0
          0 0 0 0 0 0
          0 0 0 0 0 0
          0 0 0 0 0 0
          0 0 0 0 0 0
          0 0 0 0 0 0
          0 0 0 0 0 0
          0 0 0 0 0 0
          0 0 0 0 0 0
          0 0 0 0 0 0
          0 0 0 0 0 0
          0 0 0 0 0 0
          0 0 0 0 0 0
          0 0 0 0 0 0
          0 0 0 0 0 0
          0 0 0 0 0 0
          0 0 0 0 0 0
          0 0 0 0 0 0
          0 0 0 0 0 0
          0 0 0 0 0 0
          0 0 0 0 0 0
          0 0 0 0 0 0
          0 0 0 0 0 0
          0 0 0 0 0 0
          0 0 0 0 0 0
          0 0 0 0 0 0
          0 0 0 0 0 0
          0 0 0 0 0 0
          0 0 0 0 0 0
          0 0 0 0 0 0
          0 0 0 0 0 0
          0 0 0 0 0 0
          0 0 0 0 0 0
          0 0 0 0 0 0
          0 0 0 0 0 0
          0 0 0 0 0 0
          0 0 0 0 0 0
          0 0 0 0 0 0
          0 0 0 0 0 0
          0 0 0 0 0 0
          0 0 0 0 0 0
          0 0 0 0 0 0
          0 0 0 0 0 0
          0 0 0 0 0 0
          0 0 0 0 0 0
          0 0 0 0 0 0
          0 0 0 0 0 0
          0 0 0 0 0 0
          0 0 0 0 0 0
          0 0 0 0 0 0
          0 0 0 0 0 0
          0 0 0 0 0 0
          0 0 0 0 0 0
          0 0 0 0 0 0
          0 0 0 0 0 0
          0 0 0 0 0 0
          0 0 0 0 0 0
          0 0 0 0 0 0
          0 0 0 0 0 0
          0 0 0 0 0 0
          0 0 0 0 0 0
          0 0 0 0 0 0
          0 0 0 0 0 0
          0 0 0 0 0 0
          0 0 0 0 0 0
          0 0 0 0 0 0
          0 0 0 0 0 0
          0 0 0 0 0 0
          0 0 0 0 0 0
          0 0 0 0 0 0
          0 0 0 0 0 0
          0 0 0 0 0 0
          0 0 0 0 0 0
          0 0 0 0 0 0
          0 0 0 0 0 0
          0 0 0 0 0 0
          0 0 0 0 0 0
          0 0 0 0 0 0
          0 0 0 0 0 0
          0 0 0 0 0 0
          0 0 0 0 0 0
          0 0 0 0 0 0
          0 0 0 0 0 0
          0 0 0 0 0 0
          0 0 0 0 0 0
          0 0 0 0 0 0
          0 0 0 0 0 0
          0 0 0 0 0 0
          0 0 0 0 0 0
          0 0 0 0 0 0
          0 0 0 0 0 0
          0 0 0 0 0 0
          0 0 0 0 0 0
          0 0 0 0 0 0
          0 0 0 0 0 0
          0 0 0 0 0 0
          0 0 0 0 0 0
          0 0 0 0 0 0
          0 0 0 0 0 0
          0 0 0 0 0 0
          0 0 0 0 0 0
          0 0 0 0 0 0
          0 0 0 0 0 0
          0 0 0 0 0 0
          0 0 0 0 0 0
          0 0 0 0 0 0
          0 0 0 0 0 0
          0 0 0 0 0 0
          0 0 0 0 0 0
          0 0 0 0 0 0
          0 0 0 0 0 0
          0 0 0 0 0 0
          0 0 0 0 0 0
          0 0 0 0 0 0
          0 0 0 0 0 0
          0 0 0 0 0 0
          0 0 0 0 0 0
          0 0 0 0 0 0
          0 0 0 0 0 0
          0 0 0 0 0 0
          0 0 0 0 0 0
          0 0 0 0 0 0
          0 0 0 0 0 0
          0 0 0 0 0 0
          0 0 0 0 0 0
          0 0 0 0 0 0
          0 0 0 0 0 0
          0 0 0 0 0 0
          0 0 0 0 0 0
          0 0 0 0 0 0
          0 0 0 0 0 0
          0 0 0 0 0 0
          0 0 0 0 0 0
          0 0 0 0 0 0
          0 0 0 0 0 0
          0 0 0 0 0 0
          0 0 0 0 0 0
          0 0 0 0 0 0
          0 0 0 0 0 0
          0 0 0 0 0 0
          0 0 0 0 0 0
          0 0 0 0 0 0
          0 0 0 0 0 0
          0 0 0 0 0 0
          0 0 0 0 0 0
          0 0 0 0 0 0
          0 0 0 0 0 0
          0 0 0 0 0 0
          0 0 0 0 0 0
          0 0 0 0 0 0
          0 0 0 0 0 0
          0 0 0 0 0 0
          0 0 0 0 0 0
          0 0 0 0 0 0
          0 0 0 0 0 0
          0 0 0 0 0 0
          0 0 0 0 0 0
          0 0 0 0 0 0
          0 0 0 0 0 0
          0 0 0 0 0 0
          0 0 0 0 0 0
          0 0 0 0 0 0
          0 0 0 0 0 0
          0 0 0 0 0 0
          0 0 0 0 0 0
          0 0 0 0 0 0
          0 0 0 0 0 0
          0 0 0 0 0 0
          0 0 0 0 0 0
          0 0 0 0 0 0
          0 0 0 0 0 0
          0 0 0 0 0 0
          0 0 0 0 0 0
          0 0 0 0 0 0
          0 0 0 0 0 0
          0 0 0 0 0 0
          0 0 0 0 0 0
          0 0 0 0 0 0
          0 0 0 0 0 0
          0 0 0 0 0 0
          0 0 0 0 0 0
          0 0 0 0 0 0
          0 0 0 0 0 0
          0 0 0 0 0 0
          0 0 0 0 0 0
          0 0 0 0 0 0
          0 0 0 0 0 0
          0 0 0 0 0 0
          0 0 0 0 0 0
          0 0 0 0 0 0
          0 0 0 0 0 0
          0 0 0 0 0 0
          0 0 0 0 0 0
          0 0 0 0 0 0
          0 0 0 0 0 0
          0 0 0 0 0 0
          0 0 0 0 0 0
          0 0 0 0 0 0
          0 0 0 0 0 0
          0 0 0 0 0 0
          0 0 0 0 0 0
          0 0 0 0 0 0
          0 0 0 0 0 0
          0 0 0 0 0 0
          0 0 0 0 0 0
          0 0 0 0 0 0
          0 0 0 0 0 0
          0 0 0 0 0 0
          0 0 0 0 0 0
          0 0 0 0 0 0
          0 0 0 0 0 0
          0 0 0 0 0 0
          0 0 0 0 0 0
          0 0 0 0 0 0
          0 0 0 0 0 0
          0 0 0 0 0 0
          0 0 0 0 0 0
          0 0 0 0 0 0
          0 0 0 0 0 0
          0 0 0 0 0 0
          0 0 0 0 0 0
          0 0 0 0 0 0
          0 0 0 0 0 0
          0 0 0 0 0 0
          0 0 0 0 0 0
          0 0 0 0 0 0
          0 0 0 0 0 0
          0 0 0 0 0 0
          0 0 0 0 0 0
          0 0 0 0 0 0
          0 0 0 0 0 0
          0 0 0 0 0 0
          0 0 0 0 0 0
          0 0 0 0 0 0
          0 0 0 0 0 0
          0 0 0 0 0 0
          0 0 0 0 0 0
          0 0 0 0 0 0
          0 0 0 0 0 0
          0 0 0 0 0 0
          0 0 0 0 0 0
          0 0 0 0 0 0
          0 0 0 0 0 0
          0 0 0 0 0 0
          0 0 0 0 0 0
          0 0 0 0 0 0
          0 0 0 0 0 0
          0 0 0 0 0 0
          0 0 0 0 0 0
          0 0 0 0 0 0
          0 0 0 0 0 0
          0 0 0 0 0 0
          0 0 0 0 0 0
          0 0 0 0 0 0
          0 0 0 0 0 0
          0 0 0 0 0 0
          0 0 0 0 0 0
          0 0 0 0 0 0
          0 0 0 0 0 0
          0 0 0 0 0 0
          0 0 0 0 0 0
          0 0 0 0 0 0
          0 0 0 0 0 0
          0 0 0 0 0 0
          0 0 0 0 0 0
          0 0 0 0 0 0
          0 0 0 0 0 0
          0 0 0 0 0 0
          0 0 0 0 0 0
          0 0 0 0 0 0
          0 0 0 0 0 0
          0 0 0 0 0 0
          0 0 0 0 0 0
          0 0 0 0 0 0
          0 0 0 0 0 0
          0 0 0 0 0 0
          0 0 0 0 0 0
          0 0 0 0 0 0
          0 0 0 0 0 0
          0 0 0 0 0 0
          0 0 0 0 0 0
          0 0 0 0 0 0
          0 0 0 0 0 0
          0 0 0 0 0 0
          0 0 0 0 0 0
          0 0 0 0 0 0
          0 0 0 0 0 0
          0 0 0 0 0 0
          0 0 0 0 0 0
          0 0 0 0 0 0
          0 0 0 0 0 0
          0 0 0 0 0 0
          0 0 0 0 0 0
          0 0 0 0 0 0
          0 0 0 0 0 0
          0 0 0 0 0 0
          0 0 0 0 0 0
          0 0 0 0 0 0
          0 0 0 0 0 0
          0 0 0 0 0 0
          0 0 0 0 0 0
          0 0 0 0 0 0
          0 0 0 0 0 0
          0 0 0 0 0 0
          0 0 0 0 0 0
          0 0 0 0 0 0
          0 0 0 0 0 0
          0 0 0 0 0 0
          0 0 0 0 0 0
          0 0 0 0 0 0
          0 0 0 0 0 0
          0 0 0 0 0 0
          0 0 0 0 0 0
          0 0 0 0 0 0
          0 0 0 0 0 0
          0 0 0 0 0 0
          0 0 0 0 0 0
          0 0 0 0 0 0
          0 0 0 0 0 0
          0 0 0 0 0 0
          0 0 0 0 0 0
          0 0 0 0 0 0
          0 0 0 0 0 0
          0 0 0 0 0 0
          0 0 0 0 0 0
          0 0 0 0 0 0
          0 0 0 0 0 0
          0 0 0 0 0 0
          0 0 0 0 0 0
          0 0 0 0 0 0
          0 0 0 0 0 0
          0 0 0 0 0 0
          0 0 0 0 0 0
          0 0 0 0 0 0
          0 0 0 0 0 0
          0 0 0 0 0 0
          0 0 0 0 0 0
          0 0 0 0 0 0
          0 0 0 0 0 0
          0 0 0 0 0 0
          0 0 0 0 0 0
          0 0 0 0 0 0
          0 0 0 0 0 0
          0 0 0 0 0 0
          0 0 0 0 0 0
          0 0 0 0 0 0
          0 0 0 0 0 0
          0 0 0 0 0 0
          0 0 0 0 0 0
          0 0 0 0 0 0
          0 0 0 0 0 0
          0 0 0 0 0 0
          0 0 0 0 0 0
          0 0 0 0 0 0
          0 0 0 0 0 0
          0 0 0 0 0 0
          0 0 0 0 0 0
          0 0 0 0 0 0
          0 0 0 0 0 0
          0 0 0 0 0 0
          0 0 0 0 0 0
          0 0 0 0 0 0
          0 0 0 0 0 0
          0 0 0 0 0 0
          0 0 0 0 0 0
          0 0 0 0 0 0
          0 0 0 0 0 0
          0 0 0 0 0 0
          0 0 0 0 0 0
          0 0 0 0 0 0
          0 0 0 0 0 0
          0 0 0 0 0 0
          0 0 0 0 0 0
          0 0 0 0 0 0
          0 0 0 0 0 0
          0 0 0 0 0 0
          0 0 0 0 0 0
          0 0 0 0 0 0
          0 0 0 0 0 0
          0 0 0 0 0 0
          0 0 0 0 0 0
          0 0 0 0 0 0
          0 0 0 0 0 0
          0 0 0 0 0 0
          0 0 0 0 0 0
          0 0 0 0 0 0
          0 0 0 0 0 0
          0 0 0 0 0 0
          0 0 0 0 0 0
          0 0 0 0 0 0
          0 0 0 0 0 0
          0 0 0 0 0 0
          0 0 0 0 0 0
          0 0 0 0 0 0
          0 0 0 0 0 0
          0 0 0 0 0 0
          0 0 0 0 0 0
          0 0 0 0 0 0
          0 0 0 0 0 0
          0 0 0 0 0 0
          0 0 0 0 0 0
          0 0 0 0 0 0
          0 0 0 0 0 0
          0 0 0 0 0 0
          0 0 0 0 0 0
          0 0 0 0 0 0
          0 0 0 0 0 0
          0 0 0 0 0 0
          0 0 0 0 0 0
          0 0 0 0 0 0
          0 0 0 0 0 0
          0 0 0 0 0 0
          0 0 0 0 0 0
          0 0 0 0 0 0
          0 0 0 0 0 0
          0 0 0 0 0 0
          0 0 0 0 0 0
          0 0 0 0 0 0
          0 0 0 0 0 0
          0 0 0 0 0 0
          0 0 0 0 0 0
          0 0 0 0 0 0
          0 0 0 0 0 0
          0 0 0 0 0 0
          0 0 0 0 0 0
          0 0 0 0 0 0
          0 0 0 0 0 0
          0 0 0 0 0 0
          0 0 0 0 0 0
          0 0 0 0 0 0
          0 0 0 0 0 0
          0 0 0 0 0 0
          0 0 0 0 0 0
          0 0 0 0 0 0
          0 0 0 0 0 0
          0 0 0 0 0 0
          0 0 0 0 0 0
          0 0 0 0 0 0
          0 0 0 0 0 0
          0 0 0 0 0 0
          0 0 0 0 0 0
          0 0 0 0 0 0
          0 0 0 0 0 0
          0 0 0 0 0 0
          0 0 0 0 0 0
          0 0 0 0 0 0
          0 0 0 0 0 0
          0 0 0 0 0 0
          0 0 0 0 0 0
          0 0 0 0 0 0
          0 0 0 0 0 0
          0 0 0 0 0 0
          0 0 0 0 0 0
          0 0 0 0 0 0
          0 0 0 0 0 0
          0 0 0 0 0 0
          0 0 0 0 0 0
          0 0 0 0 0 0
          0 0 0 0 0 0
          0 0 0 0 0 0
          0 0 0 0 0 0
          0 0 0 0 0 0
          0 0 0 0 0 0
          0 0 0 0 0 0
          0 0 0 0 0 0
          0 0 0 0 0 0
          0 0 0 0 0 0
          0 0 0 0 0 0
          0 0 0 0 0 0
          0 0 0 0 0 0
          0 0 0 0 0 0
          0 0 0 0 0 0
          0 0 0 0 0 0
          0 0 0 0 0 0
          0 0 0 0 0 0
          0 0 0 0 0 0
          0 0 0 0 0 0
          0 0 0 0 0 0
          0 0 0 0 0 0
          0 0 0 0 0 0
          0 0 0 0 0 0
          0 0 0 0 0 0
          0 0 0 0 0 0
          0 0 0 0 0 0
          0 0 0 0 0 0
          0 0 0 0 0 0
          0 0 0 0 0 0
          0 0 0 0 0 0
          0 0 0 0 0 0
          0 0 0 0 0 0
          0 0 0 0 0 0
          0 0 0 0 0 0
          0 0 0 0 0 0
          0 0 0 0 0 0
          0 0 0 0 0 0
          0 0 0 0 0 0
          0 0 0 0 0 0
          0 0 0 0 0 0
          0 0 0 0 0 0
          0 0 0 0 0 0
          0 0 0 0 0 0
          0 0 0 0 0 0
          0 0 0 0 0 0
          0 0 0 0 0 0
          0 0 0 0 0 0
          0 0 0 0 0 0
          0 0 0 0 0 0
          0 0 0 0 0 0
          0 0 0 0 0 0
          0 0 0 0 0 0
          0 0 0 0 0 0
          0 0 0 0 0 0
          0 0 0 0 0 0
          0 0 0 0 0 0
          0 0 0 0 0 0
          0 0 0 0 0 0
          0 0 0 0 0 0
          0 0 0 0 0 0
          0 0 0 0 0 0
          0 0 0 0 0 0
          0 0 0 0 0 0
          0 0 0 0 0 0
          0 0 0 0 0 0
          0 0 0 0 0 0
          0 0 0 0 0 0
          0 0 0 0 0 0
          0 0 0 0 0 0
          0 0 0 0 0 0
          0 0 0 0 0 0
          0 0 0 0 0 0
          0 0 0 0 0 0
          0 0 0 0 0 0
          0 0 0 0 0 0
          0 0 0 0 0 0
          0 0 0 0 0 0
          0 0 0 0 0 0
          0 0 0 0 0 0
          0 0 0 0 0 0
          0 0 0 0 0 0
          0 0 0 0 0 0
          0 0 0 0 0 0
          0 0 0 0 0 0
          0 0 0 0 0 0
          0 0 0 0 0 0
          0 0 0 0 0 0
          0 0 0 0 0 0
          0 0 0 0 0 0
          0 0 0 0 0 0
          0 0 0 0 0 0
          0 0 0 0 0 0
          0 0 0 0 0 0
          0 0 0 0 0 0
          0 0 0 0 0 0
          0 0 0 0 0 0
          0 0 0 0 0 0
          0 0 0 0 0 0
          0 0 0 0 0 0
          0 0 0 0 0 0
          0 0 0 0 0 0
          0 0 0 0 0 0
          0 0 0 0 0 0
          0 0 0 0 0 0
          0 0 0 0 0 0
          0 0 0 0 0 0
          0 0 0 0 0 0
          0 0 0 0 0 0
          0 0 0 0 0 0
          0 0 0 0 0 0
          0 0 0 0 0 0
          0 0 0 0 0 0
          0 0 0 0 0 0
          0 0 0 0 0 0
          0 0 0 0 0 0
          0 0 0 0 0 0
          0 0 0 0 0 0
          0 0 0 0 0 0
          0 0 0 0 0 0
          0 0 0 0 0 0
          0 0 0 0 0 0
          0 0 0 0 0 0
          0 0 0 0 0 0
          0 0 0 0 0 0
          0 0 0 0 0 0
          0 0 0 0 0 0
          0 0 0 0 0 0
          0 0 0 0 0 0
          0 0 0 0 0 0
          0 0 0 0 0 0
          0 0 0 0 0 0
          0 0 0 0 0 0
          0 0 0 0 0 0
          0 0 0 0 0 0
          0 0 0 0 0 0
          0 0 0 0 0 0
          0 0 0 0 0 0
          0 0 0 0 0 0
          0 0 0 0 0 0
          0 0 0 0 0 0
          0 0 0 0 0 0
          0 0 0 0 0 0
          0 0 0 0 0 0
          0 0 0 0 0 0
          0 0 0 0 0 0
          0 0 0 0 0 0
          0 0 0 0 0 0
          0 0 0 0 0 0
          0 0 0 0 0 0
          0 0 0 0 0 0
          0 0 0 0 0 0
          0 0 0 0 0 0
          0 0 0 0 0 0
          0 0 0 0 0 0
          0 0 0 0 0 0
          0 0 0 0 0 0
          0 0 0 0 0 0
          0 0 0 0 0 0
          0 0 0 0 0 0
          0 0 0 0 0 0
          0 0 0 0 0 0
          0 0 0 0 0 0
          0 0 0 0 0 0
          0 0 0 0 0 0
          0 0 0 0 0 0
          0 0 0 0 0 0
          0 0 0 0 0 0
          0 0 0 0 0 0
          0 0 0 0 0 0
          0 0 0 0 0 0
          0 0 0 0 0 0
          0 0 0 0 0 0
          0 0 0 0 0 0
          0 0 0 0 0 0
          0 0 0 0 0 0
          0 0 0 0 0 0
          0 0 0 0 0 0
          0 0 0 0 0 0
          0 0 0 0 0 0
          0 0 0 0 0 0
          0 0 0 0 0 0
          0 0 0 0 0 0
          0 0 0 0 0 0
          0 0 0 0 0 0
          0 0 0 0 0 0
          0 0 0 0 0 0
          0 0 0 0 0 0
          0 0 0 0 0 0
          0 0 0 0 0 0
          0 0 0 0 0 0
          0 0 0 0 0 0
          0 0 0 0 0 0
          0 0 0 0 0 0
          0 0 0 0 0 0
          0 0 0 0 0 0
          0 0 0 0 0 0
          0 0 0 0 0 0
          0 0 0 0 0 0
          0 0 0 0 0 0
          0 0 0 0 0 0
          0 0 0 0 0 0
          0 0 0 0 0 0
          0 0 0 0 0 0
          0 0 0 0 0 0
          0 0 0 0 0 0
          0 0 0 0 0 0
          0 0 0 0 0 0
          0 0 0 0 0 0
          0 0 0 0 0 0
          0 0 0 0 0 0
          0 0 0 0 0 0
          0 0 0 0 0 0
          0 0 0 0 0 0
          0 0 0 0 0 0
          0 0 0 0 0 0
          0 0 0 0 0 0
          0 0 0 0 0 0
          0 0 0 0 0 0
          0 0 0 0 0 0
          0 0 0 0 0 0
          0 0 0 0 0 0
          0 0 0 0 0 0
          0 0 0 0 0 0
          0 0 0 0 0 0
          0 0 0 0 0 0
          0 0 0 0 0 0
          0 0 0 0 0 0
          0 0 0 0 0 0
          0 0 0 0 0 0
          0 0 0 0 0 0
          0 0 0 0 0 0
          0 0 0 0 0 0
          0 0 0 0 0 0
          0 0 0 0 0 0
          0 0 0 0 0 0
          0 0 0 0 0 0
          0 0 0 0 0 0
          0 0 0 0 0 0
          0 0 0 0 0 0
          0 0 0 0 0 0
          0 0 0 0 0 0
          0 0 0 0 0 0
          0 0 0 0 0 0
          0 0 0 0 0 0
          0 0 0 0 0 0
          0 0 0 0 0 0
          0 0 0 0 0 0
          0 0 0 0 0 0
          0 0 0 0 0 0
          0 0 0 0 0 0
          0 0 0 0 0 0
          0 0 0 0 0 0
          0 0 0 0 0 0
          0 0 0 0 0 0
          0 0 0 0 0 0
          0 0 0 0 0 0
          0 0 0 0 0 0
          0 0 0 0 0 0
          0 0 0 0 0 0
          0 0 0 0 0 0
          0 0 0 0 0 0
          0 0 0 0 0 0
          0 0 0 0 0 0
          0 0 0 0 0 0
          0 0 0 0 0 0
          0 0 0 0 0 0
          0 0 0 0 0 0
          0 0 0 0 0 0
          0 0 0 0 0 0
          0 0 0 0 0 0
          0 0 0 0 0 0
          0 0 0 0 0 0
          0 0 0 0 0 0
          0 0 0 0 0 0
          0 0 0 0 0 0
          0 0 0 0 0 0
          0 0 0 0 0 0
          0 0 0 0 0 0
          0 0 0 0 0 0
          0 0 0 0 0 0
          0 0 0 0 0 0
          0 0 0 0 0 0
          0 0 0 0 0 0
          0 0 0 0 0 0
          0 0 0 0 0 0
          0 0 0 0 0 0
          0 0 0 0 0 0
          0 0 0 0 0 0
          0 0 0 0 0 0
          0 0 0 0 0 0
          0 0 0 0 0 0
          0 0 0 0 0 0
          0 0 0 0 0 0
          0 0 0 0 0 0
          0 0 0 0 0 0
          0 0 0 0 0 0
          0 0 0 0 0 0
          0 0 0 0 0 0
          0 0 0 0 0 0
          0 0 0 0 0 0
          0 0 0 0 0 0
          0 0 0 0 0 0
          0 0 0 0 0 0
          0 0 0 0 0 0
          0 0 0 0 0 0
          0 0 0 0 0 0
          0 0 0 0 0 0
          0 0 0 0 0 0
          0 0 0 0 0 0
          0 0 0 0 0 0
          0 0 0 0 0 0
          0 0 0 0 0 0
          0 0 0 0 0 0
          0 0 0 0 0 0
          0 0 0 0 0 0
          0 0 0 0 0 0
          0 0 0 0 0 0
          0 0 0 0 0 0
          0 0 0 0 0 0
          0 0 0 0 0 0
          0 0 0 0 0 0
          0 0 0 0 0 0
          0 0 0 0 0 0
          0 0 0 0 0 0
          0 0 0 0 0 0
          0 0 0 0 0 0
          0 0 0 0 0 0
          0 0 0 0 0 0
          0 0 0 0 0 0
          0 0 0 0 0 0
          0 0 0 0 0 0
          0 0 0 0 0 0
          0 0 0 0 0 0
          0 0 0 0 0 0
          0 0 0 0 0 0
          0 0 0 0 0 0
          0 0 0 0 0 0
          0 0 0 0 0 0
          0 0 0 0 0 0
          0 0 0 0 0 0
          0 0 0 0 0 0
          0 0 0 0 0 0
          0 0 0 0 0 0
          0 0 0 0 0 0
          0 0 0 0 0 0
          0 0 0 0 0 0
          0 0 0 0 0 0
          0 0 0 0 0 0
          0 0 0 0 0 0
          0 0 0 0 0 0
          0 0 0 0 0 0
          0 0 0 0 0 0
          0 0 0 0 0 0
          0 0 0 0 0 0
          0 0 0 0 0 0
          0 0 0 0 0 0
          0 0 0 0 0 0
          0 0 0 0 0 0
          0 0 0 0 0 0
          0 0 0 0 0 0
          0 0 0 0 0 0
          0 0 0 0 0 0
          0 0 0 0 0 0
          0 0 0 0 0 0
          0 0 0 0 0 0
          0 0 0 0 0 0
          0 0 0 0 0 0
          0 0 0 0 0 0
          0 0 0 0 0 0
          0 0 0 0 0 0
          0 0 0 0 0 0
          0 0 0 0 0 0
          0 0 0 0 0 0
          0 0 0 0 0 0
          0 0 0 0 0 0
          0 0 0 0 0 0
          0 0 0 0 0 0
          0 0 0 0 0 0
          0 0 0 0 0 0
          0 0 0 0 0 0
          0 0 0 0 0 0
          0 0 0 0 0 0
          0 0 0 0 0 0
          0 0 0 0 0 0
          0 0 0 0 0 0
          0 0 0 0 0 0
          0 0 0 0 0 0
          0 0 0 0 0 0
          0 0 0 0 0 0
          0 0 0 0 0 0
          0 0 0 0 0 0
          0 0 0 0 0 0
          0 0 0 0 0 0
          0 0 0 0 0 0
          0 0 0 0 0 0
          0 0 0 0 0 0
          0 0 0 0 0 0
          0 0 0 0 0 0
          0 0 0 0 0 0
          0 0 0 0 0 0
          0 0 0 0 0 0
          0 0 0 0 0 0
          0 0 0 0 0 0
          0 0 0 0 0 0
          0 0 0 0 0 0
          0 0 0 0 0 0
          0 0 0 0 0 0
          0 0 0 0 0 0
          0 0 0 0 0 0
          0 0 0 0 0 0
          0 0 0 0 0 0
          0 0 0 0 0 0
          0 0 0 0 0 0
          0 0 0 0 0 0
          0 0 0 0 0 0
          0 0 0 0 0 0
          0 0 0 0 0 0
          0 0 0 0 0 0
          0 0 0 0 0 0
          0 0 0 0 0 0
          0 0 0 0 0 0
          0 0 0 0 0 0
          0 0 0 0 0 0
          0 0 0 0 0 0
          0 0 0 0 0 0
          0 0 0 0 0 0
          0 0 0 0 0 0
          0 0 0 0 0 0
          0 0 0 0 0 0
          0 0 0 0 0 0
          0 0 0 0 0 0
          0 0 0 0 0 0
          0 0 0 0 0 0
          0 0 0 0 0 0
          0 0 0 0 0 0
          0 0 0 0 0 0
          0 0 0 0 0 0
          0 0 0 0 0 0
          0 0 0 0 0 0
          0 0 0 0 0 0
          0 0 0 0 0 0
          0 0 0 0 0 0
          0 0 0 0 0 0
          0 0 0 0 0 0
          0 0 0 0 0 0
          0 0 0 0 0 0
          0 0 0 0 0 0
          0 0 0 0 0 0
          0 0 0 0 0 0
          0 0 0 0 0 0
          0 0 0 0 0 0
          0 0 0 0 0 0
          0 0 0 0 0 0
          0 0 0 0 0 0
          0 0 0 0 0 0
          0 0 0 0 0 0
          0 0 0 0 0 0
          0 0 0 0 0 0
          0 0 0 0 0 0
          0 0 0 0 0 0
          0 0 0 0 0 0
          0 0 0 0 0 0
          0 0 0 0 0 0
          0 0 0 0 0 0
          0 0 0 0 0 0
          0 0 0 0 0 0
          0 0 0 0 0 0
          0 0 0 0 0 0
          0 0 0 0 0 0
          0 0 0 0 0 0
          0 0 0 0 0 0
          0 0 0 0 0 0
          0 0 0 0 0 0
          0 0 0 0 0 0
          0 0 0 0 0 0
          0 0 0 0 0 0
          0 0 0 0 0 0
          0 0 0 0 0 0
          0 0 0 0 0 0
          0 0 0 0 0 0
          0 0 0 0 0 0
          0 0 0 0 0 0
          0 0 0 0 0 0
          0 0 0 0 0 0
          0 0 0 0 0 0
          0 0 0 0 0 0
          0 0 0 0 0 0
          0 0 0 0 0 0
          0 0 0 0 0 0
          0 0 0 0 0 0
          0 0 0 0 0 0
          0 0 0 0 0 0
          0 0 0 0 0 0
          0 0 0 0 0 0
          0 0 0 0 0 0
          0 0 0 0 0 0
          0 0 0 0 0 0
          0 0 0 0 0 0
          0 0 0 0 0 0
          0 0 0 0 0 0
          0 0 0 0 0 0
          0 0 0 0 0 0
          0 0 0 0 0 0
          0 0 0 0 0 0
          0 0 0 0 0 0
          0 0 0 0 0 0
          0 0 0 0 0 0
          0 0 0 0 0 0
          0 0 0 0 0 0
          0 0 0 0 0 0
          0 0 0 0 0 0
          0 0 0 0 0 0
          0 0 0 0 0 0
          0 0 0 0 0 0
          0 0 0 0 0 0
          0 0 0 0 0 0
          0 0 0 0 0 0
          0 0 0 0 0 0
          0 0 0 0 0 0
          0 0 0 0 0 0
          0 0 0 0 0 0
          0 0 0 0 0 0
          0 0 0 0 0 0
          0 0 0 0 0 0
          0 0 0 0 0 0
          0 0 0 0 0 0
          0 0 0 0 0 0
          0 0 0 0 0 0
          0 0 0 0 0 0
          0 0 0 0 0 0
          0 0 0 0 0 0
          0 0 0 0 0 0
          0 0 0 0 0 0
          0 0 0 0 0 0
          0 0 0 0 0 0
          0 0 0 0 0 0
          0 0 0 0 0 0
          0 0 0 0 0 0
          0 0 0 0 0 0
          0 0 0 0 0 0
          0 0 0 0 0 0
          0 0 0 0 0 0
          0 0 0 0 0 0
          0 0 0 0 0 0
          0 0 0 0 0 0
          0 0 0 0 0 0
          0 0 0 0 0 0
          0 0 0 0 0 0
          0 0 0 0 0 0
          0 0 0 0 0 0
          0 0 0 0 0 0
          0 0 0 0 0 0
          0 0 0 0 0 0
          0 0 0 0 0 0
          0 0 0 0 0 0
          0 0 0 0 0 0
          0 0 0 0 0 0
          0 0 0 0 0 0
          0 0 0 0 0 0
          0 0 0 0 0 0
          0 0 0 0 0 0
          0 0 0 0 0 0
          0 0 0 0 0 0
          0 0 0 0 0 0
          0 0 0 0 0 0
          0 0 0 0 0 0
          0 0 0 0 0 0
          0 0 0 0 0 0
          0 0 0 0 0 0
          0 0 0 0 0 0
          0 0 0 0 0 0
          0 0 0 0 0 0
          0 0 0 0 0 0
          0 0 0 0 0 0
          0 0 0 0 0 0
          0 0 0 0 0 0
          0 0 0 0 0 0
          0 0 0 0 0 0
          0 0 0 0 0 0
          0 0 0 0 0 0
          0 0 0 0 0 0
          0 0 0 0 0 0
          0 0 0 0 0 0
          0 0 0 0 0 0
          0 0 0 0 0 0
          0 0 0 0 0 0
          0 0 0 0 0 0
          0 0 0 0 0 0
          0 0 0 0 0 0
          0 0 0 0 0 0
          0 0 0 0 0 0
          0 0 0 0 0 0
          0 0 0 0 0 0
          0 0 0 0 0 0
          0 0 0 0 0 0
          0 0 0 0 0 0
          0 0 0 0 0 0
          0 0 0 0 0 0
          0 0 0 0 0 0
          0 0 0 0 0 0
          0 0 0 0 0 0
          0 0 0 0 0 0
          0 0 0 0 0 0
          0 0 0 0 0 0
          0 0 0 0 0 0
          0 0 0 0 0 0
          0 0 0 0 0 0
          0 0 0 0 0 0
          0 0 0 0 0 0
          0 0 0 0 0 0
          0 0 0 0 0 0
          0 0 0 0 0 0
          0 0 0 0 0 0
          0 0 0 0 0 0
          0 0 0 0 0 0
          0 0 0 0 0 0
          0 0 0 0 0 0
          0 0 0 0 0 0
          0 0 0 0 0 0
          0 0 0 0 0 0
          0 0 0 0 0 0
          0 0 0 0 0 0
          0 0 0 0 0 0
          0 0 0 0 0 0
          0 0 0 0 0 0
          0 0 0 0 0 0
          0 0 0 0 0 0
          0 0 0 0 0 0
          0 0 0 0 0 0
          0 0 0 0 0 0
          0 0 0 0 0 0
          0 0 0 0 0 0
          0 0 0 0 0 0
          0 0 0 0 0 0
          0 0 0 0 0 0
          0 0 0 0 0 0
          0 0 0 0 0 0
          0 0 0 0 0 0
          0 0 0 0 0 0
          0 0 0 0 0 0
          0 0 0 0 0 0
          0 0 0 0 0 0
          0 0 0 0 0 0
          0 0 0 0 0 0
          0 0 0 0 0 0
          0 0 0 0 0 0
          0 0 0 0 0 0
          0 0 0 0 0 0
          0 0 0 0 0 0
          0 0 0 0 0 0
          0 0 0 0 0 0
          0 0 0 0 0 0
          0 0 0 0 0 0
          0 0 0 0 0 0
          0 0 0 0 0 0
          0 0 0 0 0 0
          0 0 0 0 0 0
          0 0 0 0 0 0
          0 0 0 0 0 0
          0 0 0 0 0 0
          0 0 0 0 0 0
          0 0 0 0 0 0
          0 0 0 0 0 0
          0 0 0 0 0 0
          0 0 0 0 0 0
          0 0 0 0 0 0
          0 0 0 0 0 0
          0 0 0 0 0 0
          0 0 0 0 0 0
          0 0 0 0 0 0
          0 0 0 0 0 0
          0 0 0 0 0 0
          0 0 0 0 0 0
          0 0 0 0 0 0
          0 0 0 0 0 0
          0 0 0 0 0 0
          0 0 0 0 0 0
          0 0 0 0 0 0
          0 0 0 0 0 0
          0 0 0 0 0 0
          0 0 0 0 0 0
          0 0 0 0 0 0
          0 0 0 0 0 0
          0 0 0 0 0 0
          0 0 0 0 0 0
          0 0 0 0 0 0
          0 0 0 0 0 0
          0 0 0 0 0 0
          0 0 0 0 0 0
          0 0 0 0 0 0
          0 0 0 0 0 0
          0 0 0 0 0 0
          0 0 0 0 0 0
          0 0 0 0 0 0
          0 0 0 0 0 0
          0 0 0 0 0 0
          0 0 0 0 0 0
          0 0 0 0 0 0
          0 0 0 0 0 0
          0 0 0 0 0 0
          0 0 0 0 0 0
          0 0 0 0 0 0
          0 0 0 0 0 0
          0 0 0 0 0 0
          0 0 0 0 0 0
          0 0 0 0 0 0
          0 0 0 0 0 0
          0 0 0 0 0 0
          0 0 0 0 0 0
          0 0 0 0 0 0
          0 0 0 0 0 0
          0 0 0 0 0 0
          0 0 0 0 0 0
          0 0 0 0 0 0
          0 0 0 0 0 0
          0 0 0 0 0 0
          0 0 0 0 0 0
          0 0 0 0 0 0
          0 0 0 0 0 0
          0 0 0 0 0 0
          0 0 0 0 0 0
          0 0 0 0 0 0
          0 0 0 0 0 0
          0 0 0 0 0 0
          0 0 0 0 0 0
          0 0 0 0 0 0
          0 0 0 0 0 0
          0 0 0 0 0 0
          0 0 0 0 0 0
          0 0 0 0 0 0
          0 0 0 0 0 0
          0 0 0 0 0 0
          0 0 0 0 0 0
          0 0 0 0 0 0
          0 0 0 0 0 0
          0 0 0 0 0 0
          0 0 0 0 0 0
          0 0 0 0 0 0
          0 0 0 0 0 0
          0 0 0 0 0 0
          0 0 0 0 0 0
          0 0 0 0 0 0
          0 0 0 0 0 0
          0 0 0 0 0 0
          0 0 0 0 0 0
          0 0 0 0 0 0
          0 0 0 0 0 0
          0 0 0 0 0 0
          0 0 0 0 0 0
          0 0 0 0 0 0
          0 0 0 0 0 0
          0 0 0 0 0 0
          0 0 0 0 0 0
          0 0 0 0 0 0
          0 0 0 0 0 0
          0 0 0 0 0 0
          0 0 0 0 0 0
          0 0 0 0 0 0
          0 0 0 0 0 0
          0 0 0 0 0 0
          0 0 0 0 0 0
          0 0 0 0 0 0
          0 0 0 0 0 0
          0 0 0 0 0 0
          0 0 0 0 0 0
          0 0 0 0 0 0
          0 0 0 0 0 0
          0 0 0 0 0 0
          0 0 0 0 0 0
          0 0 0 0 0 0
          0 0 0 0 0 0
          0 0 0 0 0 0
          0 0 0 0 0 0
          0 0 0 0 0 0
          0 0 0 0 0 0
          0 0 0 0 0 0
          0 0 0 0 0 0
          0 0 0 0 0 0
          0 0 0 0 0 0
          0 0 0 0 0 0
          0 0 0 0 0 0
          0 0 0 0 0 0
          0 0 0 0 0 0
          0 0 0 0 0 0
          0 0 0 0 0 0
          0 0 0 0 0 0
          0 0 0 0 0 0
          0 0 0 0 0 0
          0 0 0 0 0 0
          0 0 0 0 0 0
          0 0 0 0 0 0
          0 0 0 0 0 0
          0 0 0 0 0 0
          0 0 0 0 0 0
          0 0 0 0 0 0
          0 0 0 0 0 0
          0 0 0 0 0 0
          0 0 0 0 0 0
          0 0 0 0 0 0
          0 0 0 0 0 0
          0 0 0 0 0 0
          0 0 0 0 0 0
          0 0 0 0 0 0
          0 0 0 0 0 0
          0 0 0 0 0 0
          0 0 0 0 0 0
          0 0 0 0 0 0
          0 0 0 0 0 0
          0 0 0 0 0 0
          0 0 0 0 0 0
          0 0 0 0 0 0
          0 0 0 0 0 0
          0 0 0 0 0 0
          0 0 0 0 0 0
          0 0 0 0 0 0
          0 0 0 0 0 0
          0 0 0 0 0 0
          0 0 0 0 0 0
          0 0 0 0 0 0
          0 0 0 0 0 0
          0 0 0 0 0 0
          0 0 0 0 0 0
          0 0 0 0 0 0
          0 0 0 0 0 0
          0 0 0 0 0 0
          0 0 0 0 0 0
          0 0 0 0 0 0
          0 0 0 0 0 0
          0 0 0 0 0 0
          0 0 0 0 0 0
          0 0 0 0 0 0
          0 0 0 0 0 0
          0 0 0 0 0 0
          0 0 0 0 0 0
          0 0 0 0 0 0
          0 0 0 0 0 0
          0 0 0 0 0 0
          0 0 0 0 0 0
          0 0 0 0 0 0
          0 0 0 0 0 0
          0 0 0 0 0 0
          0 0 0 0 0 0
          0 0 0 0 0 0
          0 0 0 0 0 0
          0 0 0 0 0 0
          0 0 0 0 0 0
          0 0 0 0 0 0
          0 0 0 0 0 0
          0 0 0 0 0 0
          0 0 0 0 0 0
          0 0 0 0 0 0
          0 0 0 0 0 0
          0 0 0 0 0 0
          0 0 0 0 0 0
          0 0 0 0 0 0
          0 0 0 0 0 0
          0 0 0 0 0 0
          0 0 0 0 0 0
          0 0 0 0 0 0
          0 0 0 0 0 0
          0 0 0 0 0 0
          0 0 0 0 0 0
          0 0 0 0 0 0
          0 0 0 0 0 0
          0 0 0 0 0 0
          0 0 0 0 0 0
          0 0 0 0 0 0
          0 0 0 0 0 0
          0 0 0 0 0 0
          0 0 0 0 0 0
          0 0 0 0 0 0
          0 0 0 0 0 0
          0 0 0 0 0 0
          0 0 0 0 0 0
          0 0 0 0 0 0
          0 0 0 0 0 0
          0 0 0 0 0 0
          0 0 0 0 0 0
          0 0 0 0 0 0
          0 0 0 0 0 0
          0 0 0 0 0 0
          0 0 0 0 0 0
          0 0 0 0 0 0
          0 0 0 0 0 0
          0 0 0 0 0 0
          0 0 0 0 0 0
          0 0 0 0 0 0
          0 0 0 0 0 0
          0 0 0 0 0 0
          0 0 0 0 0 0
          0 0 0 0 0 0
          0 0 0 0 0 0
          0 0 0 0 0 0
          0 0 0 0 0 0
          0 0 0 0 0 0
          0 0 0 0 0 0
          0 0 0 0 0 0
          0 0 0 0 0 0
          0 0 0 0 0 0
          0 0 0 0 0 0
          0 0 0 0 0 0
          0 0 0 0 0 0
          0 0 0 0 0 0
          0 0 0 0 0 0
          0 0 0 0 0 0
          0 0 0 0 0 0
          0 0 0 0 0 0
          0 0 0 0 0 0
          0 0 0 0 0 0
          0 0 0 0 0 0
          0 0 0 0 0 0
          0 0 0 0 0 0
          0 0 0 0 0 0
          0 0 0 0 0 0
          0 0 0 0 0 0
          0 0 0 0 0 0
          0 0 0 0 0 0
          0 0 0 0 0 0
          0 0 0 0 0 0
          0 0 0 0 0 0
          0 0 0 0 0 0
          0 0 0 0 0 0
          0 0 0 0 0 0
          0 0 0 0 0 0
          0 0 0 0 0 0
          0 0 0 0 0 0
          0 0 0 0 0 0
          0 0 0 0 0 0
          0 0 0 0 0 0
          0 0 0 0 0 0
          0 0 0 0 0 0
          0 0 0 0 0 0
          0 0 0 0 0 0
          0 0 0 0 0 0
          0 0 0 0 0 0
          0 0 0 0 0 0
          0 0 0 0 0 0
          0 0 0 0 0 0
          0 0 0 0 0 0
          0 0 0 0 0 0
          0 0 0 0 0 0
          0 0 0 0 0 0
          0 0 0 0 0 0
          0 0 0 0 0 0
          0 0 0 0 0 0
          0 0 0 0 0 0
          0 0 0 0 0 0
          0 0 0 0 0 0
          0 0 0 0 0 0
          0 0 0 0 0 0
          0 0 0 0 0 0
          0 0 0 0 0 0
          0 0 0 0 0 0
          0 0 0 0 0 0
          0 0 0 0 0 0
          0 0 0 0 0 0
          0 0 0 0 0 0
          0 0 0 0 0 0
          0 0 0 0 0 0
          0 0 0 0 0 0
          0 0 0 0 0 0
          0 0 0 0 0 0
          0 0 0 0 0 0
          0 0 0 0 0 0
          0 0 0 0 0 0
          0 0 0 0 0 0
          0 0 0 0 0 0
          0 0 0 0 0 0
          0 0 0 0 0 0
          0 0 0 0 0 0
          0 0 0 0 0 0
          0 0 0 0 0 0
          0 0 0 0 0 0
          0 0 0 0 0 0
          0 0 0 0 0 0
          0 0 0 0 0 0
          0 0 0 0 0 0
          0 0 0 0 0 0
          0 0 0 0 0 0
          0 0 0 0 0 0
          0 0 0 0 0 0
          0 0 0 0 0 0
          0 0 0 0 0 0
          0 0 0 0 0 0
          0 0 0 0 0 0
          0 0 0 0 0 0
          0 0 0 0 0 0
          0 0 0 0 0 0
          0 0 0 0 0 0
          0 0 0 0 0 0
          0 0 0 0 0 0
          0 0 0 0 0 0
          0 0 0 0 0 0
          0 0 0 0 0 0
          0 0 0 0 0 0
          0 0 0 0 0 0
          0 0 0 0 0 0
          0 0 0 0 0 0
          0 0 0 0 0 0
          0 0 0 0 0 0
          0 0 0 0 0 0
          0 0 0 0 0 0
          0 0 0 0 0 0
          0 0 0 0 0 0
          0 0 0 0 0 0
          0 0 0 0 0 0
          0 0 0 0 0 0
          0 0 0 0 0 0
          0 0 0 0 0 0
          0 0 0 0 0 0
          0 0 0 0 0 0
          0 0 0 0 0 0
          0 0 0 0 0 0
          0 0 0 0 0 0
          0 0 0 0 0 0
          0 0 0 0 0 0
          0 0 0 0 0 0
          0 0 0 0 0 0
          0 0 0 0 0 0
          0 0 0 0 0 0
          0 0 0 0 0 0
          0 0 0 0 0 0
          0 0 0 0 0 0
          0 0 0 0 0 0
          0 0 0 0 0 0
          0 0 0 0 0 0
          0 0 0 0 0 0
          0 0 0 0 0 0
          0 0 0 0 0 0
          0 0 0 0 0 0
          0 0 0 0 0 0
          0 0 0 0 0 0
          0 0 0 0 0 0
          0 0 0 0 0 0
          0 0 0 0 0 0
          0 0 0 0 0 0
          0 0 0 0 0 0
          0 0 0 0 0 0
          0 0 0 0 0 0
          0 0 0 0 0 0
          0 0 0 0 0 0
          0 0 0 0 0 0
          0 0 0 0 0 0
          0 0 0 0 0 0
          0 0 0 0 0 0
          0 0 0 0 0 0
          0 0 0 0 0 0
          0 0 0 0 0 0
          0 0 0 0 0 0
          0 0 0 0 0 0
          0 0 0 0 0 0
          0 0 0 0 0 0
          0 0 0 0 0 0
          0 0 0 0 0 0
          0 0 0 0 0 0
          0 0 0 0 0 0
          0 0 0 0 0 0
          0 0 0 0 0 0
          0 0 0 0 0 0
          0 0 0 0 0 0
          0 0 0 0 0 0
          0 0 0 0 0 0
          0 0 0 0 0 0
          0 0 0 0 0 0
          0 0 0 0 0 0
          0 0 0 0 0 0
          0 0 0 0 0 0
          0 0 0 0 0 0
          0 0 0 0 0 0
          0 0 0 0 0 0
          0 0 0 0 0 0
          0 0 0 0 0 0
          0 0 0 0 0 0
          0 0 0 0 0 0
          0 0 0 0 0 0
          0 0 0 0 0 0
          0 0 0 0 0 0
          0 0 0 0 0 0
          0 0 0 0 0 0
          0 0 0 0 0 0
          0 0 0 0 0 0
          0 0 0 0 0 0
          0 0 0 0 0 0
          0 0 0 0 0 0
          0 0 0 0 0 0
          0 0 0 0 0 0
          0 0 0 0 0 0
          0 0 0 0 0 0
          0 0 0 0 0 0
          0 0 0 0 0 0
          0 0 0 0 0 0
          0 0 0 0 0 0
          0 0 0 0 0 0
          0 0 0 0 0 0
          0 0 0 0 0 0
          0 0 0 0 0 0
          0 0 0 0 0 0
          0 0 0 0 0 0
          0 0 0 0 0 0
          0 0 0 0 0 0
          0 0 0 0 0 0
          0 0 0 0 0 0
          0 0 0 0 0 0
          0 0 0 0 0 0
          0 0 0 0 0 0
          0 0 0 0 0 0
          0 0 0 0 0 0
          0 0 0 0 0 0
          0 0 0 0 0 0
          0 0 0 0 0 0
          0 0 0 0 0 0
          0 0 0 0 0 0
          0 0 0 0 0 0
          0 0 0 0 0 0
          0 0 0 0 0 0
          0 0 0 0 0 0
          0 0 0 0 0 0
          0 0 0 0 0 0
          0 0 0 0 0 0
          0 0 0 0 0 0
          0 0 0 0 0 0
          0 0 0 0 0 0
          0 0 0 0 0 0
          0 0 0 0 0 0
          0 0 0 0 0 0
          0 0 0 0 0 0
          0 0 0 0 0 0
          0 0 0 0 0 0
          0 0 0 0 0 0
          0 0 0 0 0 0
          0 0 0 0 0 0
          0 0 0 0 0 0
          0 0 0 0 0 0
          0 0 0 0 0 0
          0 0 0 0 0 0
          0 0 0 0 0 0
          0 0 0 0 0 0
          0 0 0 0 0 0
          0 0 0 0 0 0
          0 0 0 0 0 0
          0 0 0 0 0 0
          0 0 0 0 0 0
          0 0 0 0 0 0
          0 0 0 0 0 0
          0 0 0 0 0 0
          0 0 0 0 0 0
          0 0 0 0 0 0
          0 0 0 0 0 0
          0 0 0 0 0 0
          0 0 0 0 0 0
          0 0 0 0 0 0
          0 0 0 0 0 0
          0 0 0 0 0 0
          0 0 0 0 0 0
          0 0 0 0 0 0
          0 0 0 0 0 0
          0 0 0 0 0 0
          0 0 0 0 0 0
          0 0 0 0 0 0
          0 0 0 0 0 0
          0 0 0 0 0 0
          0 0 0 0 0 0
          0 0 0 0 0 0
          0 0 0 0 0 0
          0 0 0 0 0 0
          0 0 0 0 0 0
          0 0 0 0 0 0
          0 0 0 0 0 0
          0 0 0 0 0 0
          0 0 0 0 0 0
          0 0 0 0 0 0
          0 0 0 0 0 0
          0 0 0 0 0 0
          0 0 0 0 0 0
          0 0 0 0 0 0
          0 0 0 0 0 0
          0 0 0 0 0 0
          0 0 0 0 0 0
          0 0 0 0 0 0
          0 0 0 0 0 0
          0 0 0 0 0 0
          0 0 0 0 0 0
          0 0 0 0 0 0
          0 0 0 0 0 0
          0 0 0 0 0 0
          0 0 0 0 0 0
          0 0 0 0 0 0
          0 0 0 0 0 0
          0 0 0 0 0 0
          0 0 0 0 0 0
          0 0 0 0 0 0
          0 0 0 0 0 0
          0 0 0 0 0 0
          0 0 0 0 0 0
          0 0 0 0 0 0
          0 0 0 0 0 0
          0 0 0 0 0 0
          0 0 0 0 0 0
          0 0 0 0 0 0
          0 0 0 0 0 0
          0 0 0 0 0 0
          0 0 0 0 0 0
          0 0 0 0 0 0
          0 0 0 0 0 0
          0 0 0 0 0 0
          0 0 0 0 0 0
          0 0 0 0 0 0
          0 0 0 0 0 0
          0 0 0 0 0 0
          0 0 0 0 0 0
          0 0 0 0 0 0
          0 0 0 0 0 0
          0 0 0 0 0 0
          0 0 0 0 0 0
          0 0 0 0 0 0
          0 0 0 0 0 0
          0 0 0 0 0 0
          0 0 0 0 0 0
          0 0 0 0 0 0
          0 0 0 0 0 0
          0 0 0 0 0 0
          0 0 0 0 0 0
          0 0 0 0 0 0
          0 0 0 0 0 0
          0 0 0 0 0 0
          0 0 0 0 0 0
          0 0 0 0 0 0
          0 0 0 0 0 0
          0 0 0 0 0 0
          0 0 0 0 0 0
          0 0 0 0 0 0
          0 0 0 0 0 0
          0 0 0 0 0 0
          0 0 0 0 0 0
          0 0 0 0 0 0
          0 0 0 0 0 0
          0 0 0 0 0 0
          0 0 0 0 0 0
          0 0 0 0 0 0
          0 0 0 0 0 0
          0 0 0 0 0 0
          0 0 0 0 0 0
          0 0 0 0 0 0
          0 0 0 0 0 0
          0 0 0 0 0 0
          0 0 0 0 0 0
          0 0 0 0 0 0
          0 0 0 0 0 0
          0 0 0 0 0 0
          0 0 0 0 0 0
          0 0 0 0 0 0
          0 0 0 0 0 0
          0 0 0 0 0 0
          0 0 0 0 0 0
          0 0 0 0 0 0
          0 0 0 0 0 0
          0 0 0 0 0 0
          0 0 0 0 0 0
          0 0 0 0 0 0
          0 0 0 0 0 0
          0 0 0 0 0 0
          0 0 0 0 0 0
          0 0 0 0 0 0
          0 0 0 0 0 0
          0 0 0 0 0 0
          0 0 0 0 0 0
          0 0 0 0 0 0
          0 0 0 0 0 0
          0 0 0 0 0 0
          0 0 0 0 0 0
          0 0 0 0 0 0
          0 0 0 0 0 0
          0 0 0 0 0 0
          0 0 0 0 0 0
          0 0 0 0 0 0
          0 0 0 0 0 0
          0 0 0 0 0 0
          0 0 0 0 0 0
          0 0 0 0 0 0
          0 0 0 0 0 0
          0 0 0 0 0 0
          0 0 0 0 0 0
          0 0 0 0 0 0
          0 0 0 0 0 0
          0 0 0 0 0 0
          0 0 0 0 0 0
          0 0 0 0 0 0
          0 0 0 0 0 0
          0 0 0 0 0 0
          0 0 0 0 0 0
          0 0 0 0 0 0
          0 0 0 0 0 0
          0 0 0 0 0 0
          0 0 0 0 0 0
          0 0 0 0 0 0
          0 0 0 0 0 0
          0 0 0 0 0 0
          0 0 0 0 0 0
          0 0 0 0 0 0
          0 0 0 0 0 0
          0 0 0 0 0 0
          0 0 0 0 0 0
          0 0 0 0 0 0
          0 0 0 0 0 0
          0 0 0 0 0 0
          0 0 0 0 0 0
          0 0 0 0 0 0
          0 0 0 0 0 0
          0 0 0 0 0 0
          0 0 0 0 0 0
          0 0 0 0 0 0
          0 0 0 0 0 0
          0 0 0 0 0 0
          0 0 0 0 0 0
          0 0 0 0 0 0
          0 0 0 0 0 0
          0 0 0 0 0 0
          0 0 0 0 0 0
          0 0 0 0 0 0
          0 0 0 0 0 0
          0 0 0 0 0 0
          0 0 0 0 0 0
          0 0 0 0 0 0
          0 0 0 0 0 0
          0 0 0 0 0 0
          0 0 0 0 0 0
          0 0 0 0 0 0
          0 0 0 0 0 0
          0 0 0 0 0 0
          0 0 0 0 0 0
          0 0 0 0 0 0
          0 0 0 0 0 0
          0 0 0 0 0 0
          0 0 0 0 0 0
          0 0 0 0 0 0
          0 0 0 0 0 0
          0 0 0 0 0 0
          0 0 0 0 0 0
          0 0 0 0 0 0
          0 0 0 0 0 0
          0 0 0 0 0 0
          0 0 0 0 0 0
          0 0 0 0 0 0
          0 0 0 0 0 0
          0 0 0 0 0 0
          0 0 0 0 0 0
          0 0 0 0 0 0
          0 0 0 0 0 0
          0 0 0 0 0 0
          0 0 0 0 0 0
          0 0 0 0 0 0
          0 0 0 0 0 0
          0 0 0 0 0 0
          0 0 0 0 0 0
          0 0 0 0 0 0
          0 0 0 0 0 0
          0 0 0 0 0 0
          0 0 0 0 0 0
          0 0 0 0 0 0
          0 0 0 0 0 0
          0 0 0 0 0 0
          0 0 0 0 0 0
          0 0 0 0 0 0
          0 0 0 0 0 0
          0 0 0 0 0 0
          0 0 0 0 0 0
          0 0 0 0 0 0
          0 0 0 0 0 0
          0 0 0 0 0 0
          0 0 0 0 0 0
          0 0 0 0 0 0
          0 0 0 0 0 0
          0 0 0 0 0 0
          0 0 0 0 0 0
          0 0 0 0 0 0
          0 0 0 0 0 0
          0 0 0 0 0 0
          0 0 0 0 0 0
          0 0 0 0 0 0
          0 0 0 0 0 0
          0 0 0 0 0 0
          0 0 0 0 0 0
          0 0 0 0 0 0
          0 0 0 0 0 0
          0 0 0 0 0 0
          0 0 0 0 0 0
          0 0 0 0 0 0
          0 0 0 0 0 0
          0 0 0 0 0 0
          0 0 0 0 0 0
          0 0 0 0 0 0
          0 0 0 0 0 0
          0 0 0 0 0 0
          0 0 0 0 0 0
          0 0 0 0 0 0
          0 0 0 0 0 0
          0 0 0 0 0 0
          0 0 0 0 0 0
          0 0 0 0 0 0
          0 0 0 0 0 0
          0 0 0 0 0 0
          0 0 0 0 0 0
          0 0 0 0 0 0
          0 0 0 0 0 0
          0 0 0 0 0 0
          0 0 0 0 0 0
          0 0 0 0 0 0
          0 0 0 0 0 0
          0 0 0 0 0 0
          0 0 0 0 0 0
          0 0 0 0 0 0
          0 0 0 0 0 0
          0 0 0 0 0 0
          0 0 0 0 0 0
          0 0 0 0 0 0
          0 0 0 0 0 0
          0 0 0 0 0 0
          0 0 0 0 0 0
          0 0 0 0 0 0
          0 0 0 0 0 0
          0 0 0 0 0 0
          0 0 0 0 0 0
          0 0 0 0 0 0
          0 0 0 0 0 0
          0 0 0 0 0 0
          0 0 0 0 0 0
          0 0 0 0 0 0
          0 0 0 0 0 0
          0 0 0 0 0 0
          0 0 0 0 0 0
          0 0 0 0 0 0
          0 0 0 0 0 0
          0 0 0 0 0 0
          0 0 0 0 0 0
          0 0 0 0 0 0
          0 0 0 0 0 0
          0 0 0 0 0 0
          0 0 0 0 0 0
          0 0 0 0 0 0
          0 0 0 0 0 0
          0 0 0 0 0 0
          0 0 0 0 0 0
          0 0 0 0 0 0
          0 0 0 0 0 0
          0 0 0 0 0 0
          0 0 0 0 0 0
          0 0 0 0 0 0
          0 0 0 0 0 0
          0 0 0 0 0 0
          0 0 0 0 0 0
          0 0 0 0 0 0
          0 0 0 0 0 0
          0 0 0 0 0 0
          0 0 0 0 0 0
          0 0 0 0 0 0
          0 0 0 0 0 0
          0 0 0 0 0 0
          0 0 0 0 0 0
          0 0 0 0 0 0
          0 0 0 0 0 0
          0 0 0 0 0 0
          0 0 0 0 0 0
          0 0 0 0 0 0
          0 0 0 0 0 0
          0 0 0 0 0 0
          0 0 0 0 0 0
          0 0 0 0 0 0
          0 0 0 0 0 0
          0 0 0 0 0 0
          0 0 0 0 0 0
          0 0 0 0 0 0
          0 0 0 0 0 0
          0 0 0 0 0 0
          0 0 0 0 0 0
          0 0 0 0 0 0
          0 0 0 0 0 0
          0 0 0 0 0 0
          0 0 0 0 0 0
          0 0 0 0 0 0
          0 0 0 0 0 0
          0 0 0 0 0 0
          0 0 0 0 0 0
          0 0 0 0 0 0
          0 0 0 0 0 0
          0 0 0 0 0 0
          0 0 0 0 0 0
          0 0 0 0 0 0
          0 0 0 0 0 0
          0 0 0 0 0 0
          0 0 0 0 0 0
          0 0 0 0 0 0
          0 0 0 0 0 0
          0 0 0 0 0 0
          0 0 0 0 0 0
          0 0 0 0 0 0
          0 0 0 0 0 0
          0 0 0 0 0 0
          0 0 0 0 0 0
          0 0 0 0 0 0
          0 0 0 0 0 0
          0 0 0 0 0 0
          0 0 0 0 0 0
          0 0 0 0 0 0
          0 0 0 0 0 0
          0 0 0 0 0 0
          0 0 0 0 0 0
          0 0 0 0 0 0
          0 0 0 0 0 0
          0 0 0 0 0 0
          0 0 0 0 0 0
          0 0 0 0 0 0
          0 0 0 0 0 0
          0 0 0 0 0 0
          0 0 0 0 0 0
          0 0 0 0 0 0
          0 0 0 0 0 0
          0 0 0 0 0 0
          0 0 0 0 0 0
          0 0 0 0 0 0
          0 0 0 0 0 0
          0 0 0 0 0 0
          0 0 0 0 0 0
          0 0 0 0 0 0
          0 0 0 0 0 0
          0 0 0 0 0 0
          0 0 0 0 0 0
          0 0 0 0 0 0
          0 0 0 0 0 0
          0 0 0 0 0 0
          0 0 0 0 0 0
          0 0 0 0 0 0
          0 0 0 0 0 0
          0 0 0 0 0 0
          0 0 0 0 0 0
          0 0 0 0 0 0
          0 0 0 0 0 0
          0 0 0 0 0 0
          0 0 0 0 0 0
          0 0 0 0 0 0
          0 0 0 0 0 0
          0 0 0 0 0 0
          0 0 0 0 0 0
          0 0 0 0 0 0
          0 0 0 0 0 0
          0 0 0 0 0 0
          0 0 0 0 0 0
          0 0 0 0 0 0
          0 0 0 0 0 0
          0 0 0 0 0 0
          0 0 0 0 0 0
          0 0 0 0 0 0
          0 0 0 0 0 0
          0 0 0 0 0 0
          0 0 0 0 0 0
          0 0 0 0 0 0
          0 0 0 0 0 0
          0 0 0 0 0 0
          0 0 0 0 0 0
          0 0 0 0 0 0
          0 0 0 0 0 0
          0 0 0 0 0 0
          0 0 0 0 0 0
          0 0 0 0 0 0
          0 0 0 0 0 0
          0 0 0 0 0 0
          0 0 0 0 0 0
          0 0 0 0 0 0
          0 0 0 0 0 0
          0 0 0 0 0 0
          0 0 0 0 0 0
          0 0 0 0 0 0
          0 0 0 0 0 0
          0 0 0 0 0 0
          0 0 0 0 0 0
          0 0 0 0 0 0
          0 0 0 0 0 0
          0 0 0 0 0 0
          0 0 0 0 0 0
          0 0 0 0 0 0
          0 0 0 0 0 0
          0 0 0 0 0 0
          0 0 0 0 0 0
          0 0 0 0 0 0
          0 0 0 0 0 0
          0 0 0 0 0 0
          0 0 0 0 0 0
          0 0 0 0 0 0
          0 0 0 0 0 0
          0 0 0 0 0 0
          0 0 0 0 0 0
          0 0 0 0 0 0
          0 0 0 0 0 0
          0 0 0 0 0 0
          0 0 0 0 0 0
          0 0 0 0 0 0
          0 0 0 0 0 0
          0 0 0 0 0 0
          0 0 0 0 0 0
          0 0 0 0 0 0
          0 0 0 0 0 0
          0 0 0 0 0 0
          0 0 0 0 0 0
          0 0 0 0 0 0
          0 0 0 0 0 0
          0 0 0 0 0 0
          0 0 0 0 0 0
          0 0 0 0 0 0
          0 0 0 0 0 0
          0 0 0 0 0 0
          0 0 0 0 0 0
          0 0 0 0 0 0
          0 0 0 0 0 0
          0 0 0 0 0 0
          0 0 0 0 0 0
          0 0 0 0 0 0
          0 0 0 0 0 0
          0 0 0 0 0 0
          0 0 0 0 0 0
          0 0 0 0 0 0
          0 0 0 0 0 0
          0 0 0 0 0 0
          0 0 0 0 0 0
          0 0 0 0 0 0
          0 0 0 0 0 0
          0 0 0 0 0 0
          0 0 0 0 0 0
          0 0 0 0 0 0
          0 0 0 0 0 0
          0 0 0 0 0 0
          0 0 0 0 0 0
          0 0 0 0 0 0
          0 0 0 0 0 0
          0 0 0 0 0 0
          0 0 0 0 0 0
          0 0 0 0 0 0
          0 0 0 0 0 0
          0 0 0 0 0 0
          0 0 0 0 0 0
          0 0 0 0 0 0
          0 0 0 0 0 0
          0 0 0 0 0 0
          0 0 0 0 0 0
          0 0 0 0 0 0
          0 0 0 0 0 0
          0 0 0 0 0 0
          0 0 0 0 0 0
          0 0 0 0 0 0
          0 0 0 0 0 0
          0 0 0 0 0 0
          0 0 0 0 0 0
          0 0 0 0 0 0
          0 0 0 0 0 0
          0 0 0 0 0 0
          0 0 0 0 0 0
          0 0 0 0 0 0
          0 0 0 0 0 0
          0 0 0 0 0 0
          0 0 0 0 0 0
          0 0 0 0 0 0
          0 0 0 0 0 0
          0 0 0 0 0 0
          0 0 0 0 0 0
          0 0 0 0 0 0
          0 0 0 0 0 0
          0 0 0 0 0 0
          0 0 0 0 0 0
          0 0 0 0 0 0
          0 0 0 0 0 0
          0 0 0 0 0 0
          0 0 0 0 0 0
          0 0 0 0 0 0
          0 0 0 0 0 0
          0 0 0 0 0 0
          0 0 0 0 0 0
          0 0 0 0 0 0
          0 0 0 0 0 0
          0 0 0 0 0 0
          0 0 0 0 0 0
          0 0 0 0 0 0
          0 0 0 0 0 0
          0 0 0 0 0 0
          0 0 0 0 0 0
          0 0 0 0 0 0
          0 0 0 0 0 0
          0 0 0 0 0 0
          0 0 0 0 0 0
          0 0 0 0 0 0
          0 0 0 0 0 0
          0 0 0 0 0 0
          0 0 0 0 0 0
          0 0 0 0 0 0
          0 0 0 0 0 0
          0 0 0 0 0 0
          0 0 0 0 0 0
          0 0 0 0 0 0
          0 0 0 0 0 0
          0 0 0 0 0 0
          0 0 0 0 0 0
          0 0 0 0 0 0
          0 0 0 0 0 0
          0 0 0 0 0 0
          0 0 0 0 0 0
          0 0 0 0 0 0
          0 0 0 0 0 0
          0 0 0 0 0 0
          0 0 0 0 0 0
          0 0 0 0 0 0
          0 0 0 0 0 0
          0 0 0 0 0 0
          0 0 0 0 0 0
          0 0 0 0 0 0
          0 0 0 0 0 0
          0 0 0 0 0 0
          0 0 0 0 0 0
          0 0 0 0 0 0
          0 0 0 0 0 0
          0 0 0 0 0 0
          0 0 0 0 0 0
          0 0 0 0 0 0
          0 0 0 0 0 0
          0 0 0 0 0 0
          0 0 0 0 0 0
          0 0 0 0 0 0
          0 0 0 0 0 0
          0 0 0 0 0 0
          0 0 0 0 0 0
          0 0 0 0 0 0
          0 0 0 0 0 0
          0 0 0 0 0 0
          0 0 0 0 0 0
          0 0 0 0 0 0
          0 0 0 0 0 0
          0 0 0 0 0 0
          0 0 0 0 0 0
          0 0 0 0 0 0
          0 0 0 0 0 0
          0 0 0 0 0 0
          0 0 0 0 0 0
          0 0 0 0 0 0
          0 0 0 0 0 0
          0 0 0 0 0 0
          0 0 0 0 0 0
          0 0 0 0 0 0
          0 0 0 0 0 0
          0 0 0 0 0 0
          0 0 0 0 0 0
          0 0 0 0 0 0
          0 0 0 0 0 0
          0 0 0 0 0 0
          0 0 0 0 0 0
          0 0 0 0 0 0
          0 0 0 0 0 0
          0 0 0 0 0 0
          0 0 0 0 0 0
          0 0 0 0 0 0
          0 0 0 0 0 0
          0 0 0 0 0 0
          0 0 0 0 0 0
          0 0 0 0 0 0
          0 0 0 0 0 0
          0 0 0 0 0 0
          0 0 0 0 0 0
          0 0 0 0 0 0
          0 0 0 0 0 0
          0 0 0 0 0 0
          0 0 0 0 0 0
          0 0 0 0 0 0
          0 0 0 0 0 0
          0 0 0 0 0 0
          0 0 0 0 0 0
          0 0 0 0 0 0
          0 0 0 0 0 0
          0 0 0 0 0 0
          0 0 0 0 0 0
          0 0 0 0 0 0
          0 0 0 0 0 0
          0 0 0 0 0 0
          0 0 0 0 0 0
          0 0 0 0 0 0
          0 0 0 0 0 0
          0 0 0 0 0 0
          0 0 0 0 0 0
          0 0 0 0 0 0
          0 0 0 0 0 0
          0 0 0 0 0 0
          0 0 0 0 0 0
          0 0 0 0 0 0
          0 0 0 0 0 0
          0 0 0 0 0 0
          0 0 0 0 0 0
          0 0 0 0 0 0
          0 0 0 0 0 0
          0 0 0 0 0 0
          0 0 0 0 0 0
          0 0 0 0 0 0
          0 0 0 0 0 0
          0 0 0 0 0 0
          0 0 0 0 0 0
          0 0 0 0 0 0
          0 0 0 0 0 0
          0 0 0 0 0 0
          0 0 0 0 0 0
          0 0 0 0 0 0
          0 0 0 0 0 0
          0 0 0 0 0 0
          0 0 0 0 0 0
          0 0 0 0 0 0
          0 0 0 0 0 0
          0 0 0 0 0 0
          0 0 0 0 0 0
          0 0 0 0 0 0
          0 0 0 0 0 0
          0 0 0 0 0 0
          0 0 0 0 0 0
          0 0 0 0 0 0
          0 0 0 0 0 0
          0 0 0 0 0 0
          0 0 0 0 0 0
          0 0 0 0 0 0
          0 0 0 0 0 0
          0 0 0 0 0 0
          0 0 0 0 0 0
          0 0 0 0 0 0
          0 0 0 0 0 0
          0 0 0 0 0 0
          0 0 0 0 0 0
          0 0 0 0 0 0
          0 0 0 0 0 0
          0 0 0 0 0 0
          0 0 0 0 0 0
          0 0 0 0 0 0
          0 0 0 0 0 0
          0 0 0 0 0 0
          0 0 0 0 0 0
          0 0 0 0 0 0
          0 0 0 0 0 0
          0 0 0 0 0 0
          0 0 0 0 0 0
          0 0 0 0 0 0
          0 0 0 0 0 0
          0 0 0 0 0 0
          0 0 0 0 0 0
          0 0 0 0 0 0
          0 0 0 0 0 0
          0 0 0 0 0 0
          0 0 0 0 0 0
          0 0 0 0 0 0
          0 0 0 0 0 0
          0 0 0 0 0 0
          0 0 0 0 0 0
          0 0 0 0 0 0
          0 0 0 0 0 0
          0 0 0 0 0 0
          0 0 0 0 0 0
          0 0 0 0 0 0
          0 0 0 0 0 0
          0 0 0 0 0 0
          0 0 0 0 0 0
          0 0 0 0 0 0
          0 0 0 0 0 0
          0 0 0 0 0 0
          0 0 0 0 0 0
          0 0 0 0 0 0
          0 0 0 0 0 0
          0 0 0 0 0 0
          0 0 0 0 0 0
          0 0 0 0 0 0
          0 0 0 0 0 0
          0 0 0 0 0 0
          0 0 0 0 0 0
          0 0 0 0 0 0
          0 0 0 0 0 0
          0 0 0 0 0 0
          0 0 0 0 0 0
          0 0 0 0 0 0
          0 0 0 0 0 0
          0 0 0 0 0 0
          0 0 0 0 0 0
          0 0 0 0 0 0
          0 0 0 0 0 0
          0 0 0 0 0 0
          0 0 0 0 0 0
          0 0 0 0 0 0
          0 0 0 0 0 0
          0 0 0 0 0 0
          0 0 0 0 0 0
          0 0 0 0 0 0
          0 0 0 0 0 0
          0 0 0 0 0 0
          0 0 0 0 0 0
          0 0 0 0 0 0
          0 0 0 0 0 0
          0 0 0 0 0 0
          0 0 0 0 0 0
          0 0 0 0 0 0
          0 0 0 0 0 0
          0 0 0 0 0 0
          0 0 0 0 0 0
          0 0 0 0 0 0
          0 0 0 0 0 0
          0 0 0 0 0 0
          0 0 0 0 0 0
          0 0 0 0 0 0
          0 0 0 0 0 0
          0 0 0 0 0 0
          0 0 0 0 0 0
          0 0 0 0 0 0
          0 0 0 0 0 0
          0 0 0 0 0 0
          0 0 0 0 0 0
          0 0 0 0 0 0
          0 0 0 0 0 0
          0 0 0 0 0 0
          0 0 0 0 0 0
          0 0 0 0 0 0
          0 0 0 0 0 0
          0 0 0 0 0 0
          0 0 0 0 0 0
          0 0 0 0 0 0
          0 0 0 0 0 0
          0 0 0 0 0 0
          0 0 0 0 0 0
          0 0 0 0 0 0
          0 0 0 0 0 0
          0 0 0 0 0 0
          0 0 0 0 0 0
          0 0 0 0 0 0
          0 0 0 0 0 0
          0 0 0 0 0 0
          0 0 0 0 0 0
          0 0 0 0 0 0
          0 0 0 0 0 0
          0 0 0 0 0 0
          0 0 0 0 0 0
          0 0 0 0 0 0
          0 0 0 0 0 0
          0 0 0 0 0 0
          0 0 0 0 0 0
          0 0 0 0 0 0
          0 0 0 0 0 0
          0 0 0 0 0 0
          0 0 0 0 0 0
          0 0 0 0 0 0
          0 0 0 0 0 0
          0 0 0 0 0 0
          0 0 0 0 0 0
          0 0 0 0 0 0
          0 0 0 0 0 0
          0 0 0 0 0 0
          0 0 0 0 0 0
          0 0 0 0 0 0
          0 0 0 0 0 0
          0 0 0 0 0 0
          0 0 0 0 0 0
          0 0 0 0 0 0
          0 0 0 0 0 0
          0 0 0 0 0 0
          0 0 0 0 0 0
          0 0 0 0 0 0
          0 0 0 0 0 0
          0 0 0 0 0 0
          0 0 0 0 0 0
          0 0 0 0 0 0
          0 0 0 0 0 0
          0 0 0 0 0 0
          0 0 0 0 0 0
          0 0 0 0 0 0
          0 0 0 0 0 0
          0 0 0 0 0 0
          0 0 0 0 0 0
          0 0 0 0 0 0
          0 0 0 0 0 0
          0 0 0 0 0 0
          0 0 0 0 0 0
          0 0 0 0 0 0
          0 0 0 0 0 0
          0 0 0 0 0 0
          0 0 0 0 0 0
          0 0 0 0 0 0
          0 0 0 0 0 0
          0 0 0 0 0 0
          0 0 0 0 0 0
          0 0 0 0 0 0
          0 0 0 0 0 0
          0 0 0 0 0 0
          0 0 0 0 0 0
          0 0 0 0 0 0
          0 0 0 0 0 0
          0 0 0 0 0 0
          0 0 0 0 0 0
          0 0 0 0 0 0
          0 0 0 0 0 0
          0 0 0 0 0 0
          0 0 0 0 0 0
          0 0 0 0 0 0
          0 0 0 0 0 0
          0 0 0 0 0 0
          0 0 0 0 0 0
          0 0 0 0 0 0
          0 0 0 0 0 0
          0 0 0 0 0 0
          0 0 0 0 0 0
          0 0 0 0 0 0
          0 0 0 0 0 0
          0 0 0 0 0 0
          0 0 0 0 0 0
          0 0 0 0 0 0
          0 0 0 0 0 0
          0 0 0 0 0 0
          0 0 0 0 0 0
          0 0 0 0 0 0
          0 0 0 0 0 0
          0 0 0 0 0 0
          0 0 0 0 0 0
          0 0 0 0 0 0
          0 0 0 0 0 0
          0 0 0 0 0 0
          0 0 0 0 0 0
          0 0 0 0 0 0
          0 0 0 0 0 0
          0 0 0 0 0 0
          0 0 0 0 0 0
          0 0 0 0 0 0
          0 0 0 0 0 0
          0 0 0 0 0 0
          0 0 0 0 0 0
          0 0 0 0 0 0
          0 0 0 0 0 0
          0 0 0 0 0 0
          0 0 0 0 0 0
          0 0 0 0 0 0
          0 0 0 0 0 0
          0 0 0 0 0 0
          0 0 0 0 0 0
          0 0 0 0 0 0
          0 0 0 0 0 0
          0 0 0 0 0 0
          0 0 0 0 0 0
          0 0 0 0 0 0
          0 0 0 0 0 0
          0 0 0 0 0 0
          0 0 0 0 0 0
          0 0 0 0 0 0
          0 0 0 0 0 0
          0 0 0 0 0 0
          0 0 0 0 0 0
          0 0 0 0 0 0
          0 0 0 0 0 0
          0 0 0 0 0 0
          0 0 0 0 0 0
          0 0 0 0 0 0
          0 0 0 0 0 0
          0 0 0 0 0 0
          0 0 0 0 0 0
          0 0 0 0 0 0
          0 0 0 0 0 0
          0 0 0 0 0 0
          0 0 0 0 0 0
          0 0 0 0 0 0
          0 0 0 0 0 0
          0 0 0 0 0 0
          0 0 0 0 0 0
          0 0 0 0 0 0
          0 0 0 0 0 0
          0 0 0 0 0 0
          0 0 0 0 0 0
          0 0 0 0 0 0
          0 0 0 0 0 0
          0 0 0 0 0 0
          0 0 0 0 0 0
          0 0 0 0 0 0
          0 0 0 0 0 0
          0 0 0 0 0 0
          0 0 0 0 0 0
          0 0 0 0 0 0
          0 0 0 0 0 0
          0 0 0 0 0 0
          0 0 0 0 0 0
          0 0 0 0 0 0
          0 0 0 0 0 0
          0 0 0 0 0 0
          0 0 0 0 0 0
          0 0 0 0 0 0
          0 0 0 0 0 0
          0 0 0 0 0 0
          0 0 0 0 0 0
          0 0 0 0 0 0
          0 0 0 0 0 0
          0 0 0 0 0 0
          0 0 0 0 0 0
          0 0 0 0 0 0
          0 0 0 0 0 0
          0 0 0 0 0 0
          0 0 0 0 0 0
          0 0 0 0 0 0
          0 0 0 0 0 0
          0 0 0 0 0 0
          0 0 0 0 0 0
          0 0 0 0 0 0
          0 0 0 0 0 0
          0 0 0 0 0 0
          0 0 0 0 0 0
          0 0 0 0 0 0
          0 0 0 0 0 0
          0 0 0 0 0 0
          0 0 0 0 0 0
          0 0 0 0 0 0
          0 0 0 0 0 0
          0 0 0 0 0 0
          0 0 0 0 0 0
          0 0 0 0 0 0
          0 0 0 0 0 0
          0 0 0 0 0 0
          0 0 0 0 0 0
          0 0 0 0 0 0
          0 0 0 0 0 0
          0 0 0 0 0 0
          0 0 0 0 0 0
          0 0 0 0 0 0
          0 0 0 0 0 0
          0 0 0 0 0 0
          0 0 0 0 0 0
          0 0 0 0 0 0
          0 0 0 0 0 0
          0 0 0 0 0 0
          0 0 0 0 0 0
          0 0 0 0 0 0
          0 0 0 0 0 0
          0 0 0 0 0 0
          0 0 0 0 0 0
          0 0 0 0 0 0
          0 0 0 0 0 0
          0 0 0 0 0 0
          0 0 0 0 0 0
          0 0 0 0 0 0
          0 0 0 0 0 0
          0 0 0 0 0 0
          0 0 0 0 0 0
          0 0 0 0 0 0
          0 0 0 0 0 0
          0 0 0 0 0 0
          0 0 0 0 0 0
          0 0 0 0 0 0
          0 0 0 0 0 0
          0 0 0 0 0 0
          0 0 0 0 0 0
          0 0 0 0 0 0
          0 0 0 0 0 0
          0 0 0 0 0 0
          0 0 0 0 0 0
          0 0 0 0 0 0
          0 0 0 0 0 0
          0 0 0 0 0 0
          0 0 0 0 0 0
          0 0 0 0 0 0
          0 0 0 0 0 0
          0 0 0 0 0 0
          0 0 0 0 0 0
          0 0 0 0 0 0
          0 0 0 0 0 0
          0 0 0 0 0 0
          0 0 0 0 0 0
          0 0 0 0 0 0
          0 0 0 0 0 0
          0 0 0 0 0 0
          0 0 0 0 0 0
          0 0 0 0 0 0
          0 0 0 0 0 0
          0 0 0 0 0 0
          0 0 0 0 0 0
          0 0 0 0 0 0
          0 0 0 0 0 0
          0 0 0 0 0 0
          0 0 0 0 0 0
          0 0 0 0 0 0
          0 0 0 0 0 0
          0 0 0 0 0 0
          0 0 0 0 0 0
          0 0 0 0 0 0
          0 0 0 0 0 0
          0 0 0 0 0 0
          0 0 0 0 0 0
          0 0 0 0 0 0
          0 0 0 0 0 0
          0 0 0 0 0 0
          0 0 0 0 0 0
          0 0 0 0 0 0
          0 0 0 0 0 0
          0 0 0 0 0 0
          0 0 0 0 0 0
          0 0 0 0 0 0
          0 0 0 0 0 0
          0 0 0 0 0 0
          0 0 0 0 0 0
          0 0 0 0 0 0
          0 0 0 0 0 0
          0 0 0 0 0 0
          0 0 0 0 0 0
          0 0 0 0 0 0
          0 0 0 0 0 0
          0 0 0 0 0 0
          0 0 0 0 0 0
          0 0 0 0 0 0
          0 0 0 0 0 0
          0 0 0 0 0 0
          0 0 0 0 0 0
          0 0 0 0 0 0
          0 0 0 0 0 0
          0 0 0 0 0 0
          0 0 0 0 0 0
          0 0 0 0 0 0
          0 0 0 0 0 0
          0 0 0 0 0 0
          0 0 0 0 0 0
          0 0 0 0 0 0
          0 0 0 0 0 0
          0 0 0 0 0 0
          0 0 0 0 0 0
          0 0 0 0 0 0
          0 0 0 0 0 0
          0 0 0 0 0 0
          0 0 0 0 0 0
          0 0 0 0 0 0
          0 0 0 0 0 0
          0 0 0 0 0 0
          0 0 0 0 0 0
          0 0 0 0 0 0
          0 0 0 0 0 0
          0 0 0 0 0 0
          0 0 0 0 0 0
          0 0 0 0 0 0
          0 0 0 0 0 0
          0 0 0 0 0 0
          0 0 0 0 0 0
          0 0 0 0 0 0
          0 0 0 0 0 0
          0 0 0 0 0 0
          0 0 0 0 0 0
          0 0 0 0 0 0
          0 0 0 0 0 0
          0 0 0 0 0 0
          0 0 0 0 0 0
          0 0 0 0 0 0
          0 0 0 0 0 0
          0 0 0 0 0 0
          0 0 0 0 0 0
          0 0 0 0 0 0
          0 0 0 0 0 0
          0 0 0 0 0 0
          0 0 0 0 0 0
          0 0 0 0 0 0
          0 0 0 0 0 0
          0 0 0 0 0 0
          0 0 0 0 0 0
          0 0 0 0 0 0
          0 0 0 0 0 0
          0 0 0 0 0 0
          0 0 0 0 0 0
          0 0 0 0 0 0
          0 0 0 0 0 0
          0 0 0 0 0 0
          0 0 0 0 0 0
          0 0 0 0 0 0
          0 0 0 0 0 0
          0 0 0 0 0 0
          0 0 0 0 0 0
          0 0 0 0 0 0
          0 0 0 0 0 0
          0 0 0 0 0 0
          0 0 0 0 0 0
          0 0 0 0 0 0
          0 0 0 0 0 0
          0 0 0 0 0 0
          0 0 0 0 0 0
          0 0 0 0 0 0
          0 0 0 0 0 0
          0 0 0 0 0 0
          0 0 0 0 0 0
          0 0 0 0 0 0
          0 0 0 0 0 0
          0 0 0 0 0 0
          0 0 0 0 0 0
          0 0 0 0 0 0
          0 0 0 0 0 0
          0 0 0 0 0 0
          0 0 0 0 0 0
          0 0 0 0 0 0
          0 0 0 0 0 0
          0 0 0 0 0 0
          0 0 0 0 0 0
          0 0 0 0 0 0
          0 0 0 0 0 0
          0 0 0 0 0 0
          0 0 0 0 0 0
          0 0 0 0 0 0
          0 0 0 0 0 0
          0 0 0 0 0 0
          0 0 0 0 0 0
          0 0 0 0 0 0
          0 0 0 0 0 0
          0 0 0 0 0 0
          0 0 0 0 0 0
          0 0 0 0 0 0
          0 0 0 0 0 0
          0 0 0 0 0 0
          0 0 0 0 0 0
          0 0 0 0 0 0
          0 0 0 0 0 0
          0 0 0 0 0 0
          0 0 0 0 0 0
          0 0 0 0 0 0
          0 0 0 0 0 0
          0 0 0 0 0 0
          0 0 0 0 0 0
          0 0 0 0 0 0
          0 0 0 0 0 0
          0 0 0 0 0 0
          0 0 0 0 0 0
          0 0 0 0 0 0
          0 0 0 0 0 0
          0 0 0 0 0 0
          0 0 0 0 0 0
          0 0 0 0 0 0
          0 0 0 0 0 0
          0 0 0 0 0 0
          0 0 0 0 0 0
          0 0 0 0 0 0
          0 0 0 0 0 0
          0 0 0 0 0 0
          0 0 0 0 0 0
          0 0 0 0 0 0
          0 0 0 0 0 0
          0 0 0 0 0 0
          0 0 0 0 0 0
          0 0 0 0 0 0
          0 0 0 0 0 0
          0 0 0 0 0 0
          0 0 0 0 0 0
          0 0 0 0 0 0
          0 0 0 0 0 0
          0 0 0 0 0 0
          0 0 0 0 0 0
          0 0 0 0 0 0
          0 0 0 0 0 0
          0 0 0 0 0 0
          0 0 0 0 0 0
          0 0 0 0 0 0
          0 0 0 0 0 0
          0 0 0 0 0 0
          0 0 0 0 0 0
          0 0 0 0 0 0
          0 0 0 0 0 0
          0 0 0 0 0 0
          0 0 0 0 0 0
          0 0 0 0 0 0
          0 0 0 0 0 0
          0 0 0 0 0 0
          0 0 0 0 0 0
          0 0 0 0 0 0
          0 0 0 0 0 0
          0 0 0 0 0 0
          0 0 0 0 0 0
          0 0 0 0 0 0
          0 0 0 0 0 0
          0 0 0 0 0 0
          0 0 0 0 0 0
          0 0 0 0 0 0
          0 0 0 0 0 0
          0 0 0 0 0 0
          0 0 0 0 0 0
          0 0 0 0 0 0
          0 0 0 0 0 0
          0 0 0 0 0 0
          0 0 0 0 0 0
          0 0 0 0 0 0
          0 0 0 0 0 0
          0 0 0 0 0 0
          0 0 0 0 0 0
          0 0 0 0 0 0
          0 0 0 0 0 0
          0 0 0 0 0 0
          0 0 0 0 0 0
          0 0 0 0 0 0
          0 0 0 0 0 0
          0 0 0 0 0 0
          0 0 0 0 0 0
          0 0 0 0 0 0
          0 0 0 0 0 0
          0 0 0 0 0 0
          0 0 0 0 0 0
          0 0 0 0 0 0
          0 0 0 0 0 0
          0 0 0 0 0 0
          0 0 0 0 0 0
          0 0 0 0 0 0
          0 0 0 0 0 0
          0 0 0 0 0 0
          0 0 0 0 0 0
          0 0 0 0 0 0
          0 0 0 0 0 0
          0 0 0 0 0 0
          0 0 0 0 0 0
          0 0 0 0 0 0
          0 0 0 0 0 0
          0 0 0 0 0 0
          0 0 0 0 0 0
          0 0 0 0 0 0
          0 0 0 0 0 0
          0 0 0 0 0 0
          0 0 0 0 0 0
          0 0 0 0 0 0
          0 0 0 0 0 0
          0 0 0 0 0 0
          0 0 0 0 0 0
          0 0 0 0 0 0
          0 0 0 0 0 0
          0 0 0 0 0 0
          0 0 0 0 0 0
          0 0 0 0 0 0
          0 0 0 0 0 0
          0 0 0 0 0 0
          0 0 0 0 0 0
          0 0 0 0 0 0
          0 0 0 0 0 0
          0 0 0 0 0 0
          0 0 0 0 0 0
          0 0 0 0 0 0
          0 0 0 0 0 0
          0 0 0 0 0 0
          0 0 0 0 0 0
          0 0 0 0 0 0
          0 0 0 0 0 0
          0 0 0 0 0 0
          0 0 0 0 0 0
          0 0 0 0 0 0
          0 0 0 0 0 0
          0 0 0 0 0 0
          0 0 0 0 0 0
          0 0 0 0 0 0
          0 0 0 0 0 0
          0 0 0 0 0 0
          0 0 0 0 0 0
          0 0 0 0 0 0
          0 0 0 0 0 0
          0 0 0 0 0 0
          0 0 0 0 0 0
          0 0 0 0 0 0
          0 0 0 0 0 0
          0 0 0 0 0 0
          0 0 0 0 0 0
          0 0 0 0 0 0
          0 0 0 0 0 0
          0 0 0 0 0 0
          0 0 0 0 0 0
          0 0 0 0 0 0
          0 0 0 0 0 0
          0 0 0 0 0 0
          0 0 0 0 0 0
          0 0 0 0 0 0
          0 0 0 0 0 0
          0 0 0 0 0 0
          0 0 0 0 0 0
          0 0 0 0 0 0
          0 0 0 0 0 0
          0 0 0 0 0 0
          0 0 0 0 0 0
          0 0 0 0 0 0
          0 0 0 0 0 0
          0 0 0 0 0 0
          0 0 0 0 0 0
          0 0 0 0 0 0
          0 0 0 0 0 0
          0 0 0 0 0 0
          0 0 0 0 0 0
          0 0 0 0 0 0
          0 0 0 0 0 0
          0 0 0 0 0 0
          0 0 0 0 0 0
          0 0 0 0 0 0
          0 0 0 0 0 0
          0 0 0 0 0 0
          0 0 0 0 0 0
          0 0 0 0 0 0
          0 0 0 0 0 0
          0 0 0 0 0 0
          0 0 0 0 0 0
          0 0 0 0 0 0
          0 0 0 0 0 0
          0 0 0 0 0 0
          0 0 0 0 0 0
          0 0 0 0 0 0
          0 0 0 0 0 0
          0 0 0 0 0 0
          0 0 0 0 0 0
          0 0 0 0 0 0
          0 0 0 0 0 0
          0 0 0 0 0 0
          0 0 0 0 0 0
          0 0 0 0 0 0
          0 0 0 0 0 0
          0 0 0 0 0 0
          0 0 0 0 0 0
          0 0 0 0 0 0
          0 0 0 0 0 0
          0 0 0 0 0 0
          0 0 0 0 0 0
          0 0 0 0 0 0
          0 0 0 0 0 0
          0 0 0 0 0 0
          0 0 0 0 0 0
          0 0 0 0 0 0
          0 0 0 0 0 0
          0 0 0 0 0 0
          0 0 0 0 0 0
          0 0 0 0 0 0
          0 0 0 0 0 0
          0 0 0 0 0 0
          0 0 0 0 0 0
          0 0 0 0 0 0
          0 0 0 0 0 0
          0 0 0 0 0 0
          0 0 0 0 0 0
          0 0 0 0 0 0
          0 0 0 0 0 0
          0 0 0 0 0 0
          0 0 0 0 0 0
          0 0 0 0 0 0
          0 0 0 0 0 0
          0 0 0 0 0 0
          0 0 0 0 0 0
          0 0 0 0 0 0
          0 0 0 0 0 0
          0 0 0 0 0 0
          0 0 0 0 0 0
          0 0 0 0 0 0
          0 0 0 0 0 0
          0 0 0 0 0 0
          0 0 0 0 0 0
          0 0 0 0 0 0
          0 0 0 0 0 0
          0 0 0 0 0 0
          0 0 0 0 0 0
          0 0 0 0 0 0
          0 0 0 0 0 0
          0 0 0 0 0 0
          0 0 0 0 0 0
          0 0 0 0 0 0
          0 0 0 0 0 0
          0 0 0 0 0 0
          0 0 0 0 0 0
          0 0 0 0 0 0
          0 0 0 0 0 0
          0 0 0 0 0 0
          0 0 0 0 0 0
          0 0 0 0 0 0
          0 0 0 0 0 0
          0 0 0 0 0 0
          0 0 0 0 0 0
          0 0 0 0 0 0
          0 0 0 0 0 0
          0 0 0 0 0 0
          0 0 0 0 0 0
          0 0 0 0 0 0
          0 0 0 0 0 0
          0 0 0 0 0 0
          0 0 0 0 0 0
          0 0 0 0 0 0
          0 0 0 0 0 0
          0 0 0 0 0 0
          0 0 0 0 0 0
          0 0 0 0 0 0
          0 0 0 0 0 0
          0 0 0 0 0 0
          0 0 0 0 0 0
          0 0 0 0 0 0
          0 0 0 0 0 0
          0 0 0 0 0 0
          0 0 0 0 0 0
          0 0 0 0 0 0
          0 0 0 0 0 0
          0 0 0 0 0 0
          0 0 0 0 0 0
          0 0 0 0 0 0
          0 0 0 0 0 0
          0 0 0 0 0 0
          0 0 0 0 0 0
          0 0 0 0 0 0
          0 0 0 0 0 0
          0 0 0 0 0 0
          0 0 0 0 0 0
          0 0 0 0 0 0
          0 0 0 0 0 0
          0 0 0 0 0 0
          0 0 0 0 0 0
          0 0 0 0 0 0
          0 0 0 0 0 0
          0 0 0 0 0 0
          0 0 0 0 0 0
          0 0 0 0 0 0
          0 0 0 0 0 0
          0 0 0 0 0 0
          0 0 0 0 0 0
          0 0 0 0 0 0
          0 0 0 0 0 0
          0 0 0 0 0 0
          0 0 0 0 0 0
          0 0 0 0 0 0
          0 0 0 0 0 0
          0 0 0 0 0 0
          0 0 0 0 0 0
          0 0 0 0 0 0
          0 0 0 0 0 0
          0 0 0 0 0 0
          0 0 0 0 0 0
          0 0 0 0 0 0
          0 0 0 0 0 0
          0 0 0 0 0 0
          0 0 0 0 0 0
          0 0 0 0 0 0
          0 0 0 0 0 0
          0 0 0 0 0 0
          0 0 0 0 0 0
          0 0 0 0 0 0
          0 0 0 0 0 0
          0 0 0 0 0 0
          0 0 0 0 0 0
          0 0 0 0 0 0
          0 0 0 0 0 0
          0 0 0 0 0 0
          0 0 0 0 0 0
          0 0 0 0 0 0
          0 0 0 0 0 0
          0 0 0 0 0 0
          0 0 0 0 0 0
          0 0 0 0 0 0
          0 0 0 0 0 0
          0 0 0 0 0 0
          0 0 0 0 0 0
          0 0 0 0 0 0
          0 0 0 0 0 0
          0 0 0 0 0 0
          0 0 0 0 0 0
          0 0 0 0 0 0
          0 0 0 0 0 0
          0 0 0 0 0 0
          0 0 0 0 0 0
          0 0 0 0 0 0
          0 0 0 0 0 0
          0 0 0 0 0 0
          0 0 0 0 0 0
          0 0 0 0 0 0
          0 0 0 0 0 0
          0 0 0 0 0 0
          0 0 0 0 0 0
          0 0 0 0 0 0
          0 0 0 0 0 0
          0 0 0 0 0 0
          0 0 0 0 0 0
          0 0 0 0 0 0
          0 0 0 0 0 0
          0 0 0 0 0 0
          0 0 0 0 0 0
          0 0 0 0 0 0
          0 0 0 0 0 0
          0 0 0 0 0 0
          0 0 0 0 0 0
          0 0 0 0 0 0
          0 0 0 0 0 0
          0 0 0 0 0 0
          0 0 0 0 0 0
          0 0 0 0 0 0
          0 0 0 0 0 0
          0 0 0 0 0 0
          0 0 0 0 0 0
          0 0 0 0 0 0
          0 0 0 0 0 0
          0 0 0 0 0 0
          0 0 0 0 0 0
          0 0 0 0 0 0
          0 0 0 0 0 0
          0 0 0 0 0 0
          0 0 0 0 0 0
          0 0 0 0 0 0
          0 0 0 0 0 0
          0 0 0 0 0 0
          0 0 0 0 0 0
          0 0 0 0 0 0
          0 0 0 0 0 0
          0 0 0 0 0 0
          0 0 0 0 0 0
          0 0 0 0 0 0
          0 0 0 0 0 0
          0 0 0 0 0 0
          0 0 0 0 0 0
          0 0 0 0 0 0
          0 0 0 0 0 0
          0 0 0 0 0 0
          0 0 0 0 0 0
          0 0 0 0 0 0
          0 0 0 0 0 0
          0 0 0 0 0 0
          0 0 0 0 0 0
          0 0 0 0 0 0
          0 0 0 0 0 0
          0 0 0 0 0 0
          0 0 0 0 0 0
          0 0 0 0 0 0
          0 0 0 0 0 0
          0 0 0 0 0 0
          0 0 0 0 0 0
          0 0 0 0 0 0
          0 0 0 0 0 0
          0 0 0 0 0 0
          0 0 0 0 0 0
          0 0 0 0 0 0
          0 0 0 0 0 0
          0 0 0 0 0 0
          0 0 0 0 0 0
          0 0 0 0 0 0
          0 0 0 0 0 0
          0 0 0 0 0 0
          0 0 0 0 0 0
          0 0 0 0 0 0
          0 0 0 0 0 0
          0 0 0 0 0 0
          0 0 0 0 0 0
          0 0 0 0 0 0
          0 0 0 0 0 0
          0 0 0 0 0 0
          0 0 0 0 0 0
          0 0 0 0 0 0
          0 0 0 0 0 0
          0 0 0 0 0 0
          0 0 0 0 0 0
          0 0 0 0 0 0
          0 0 0 0 0 0
          0 0 0 0 0 0
          0 0 0 0 0 0
          0 0 0 0 0 0
          0 0 0 0 0 0
          0 0 0 0 0 0
          0 0 0 0 0 0
          0 0 0 0 0 0
          0 0 0 0 0 0
          0 0 0 0 0 0
          0 0 0 0 0 0
          0 0 0 0 0 0
          0 0 0 0 0 0
          0 0 0 0 0 0
          0 0 0 0 0 0
          0 0 0 0 0 0
          0 0 0 0 0 0
          0 0 0 0 0 0
          0 0 0 0 0 0
          0 0 0 0 0 0
          0 0 0 0 0 0
          0 0 0 0 0 0
          0 0 0 0 0 0
          0 0 0 0 0 0
          0 0 0 0 0 0
          0 0 0 0 0 0
          0 0 0 0 0 0
          0 0 0 0 0 0
          0 0 0 0 0 0
          0 0 0 0 0 0
          0 0 0 0 0 0
          0 0 0 0 0 0
          0 0 0 0 0 0
          0 0 0 0 0 0
          0 0 0 0 0 0
          0 0 0 0 0 0
          0 0 0 0 0 0
          0 0 0 0 0 0
          0 0 0 0 0 0
          0 0 0 0 0 0
          0 0 0 0 0 0
          0 0 0 0 0 0
          0 0 0 0 0 0
          0 0 0 0 0 0
          0 0 0 0 0 0
          0 0 0 0 0 0
          0 0 0 0 0 0
          0 0 0 0 0 0
          0 0 0 0 0 0
          0 0 0 0 0 0
          0 0 0 0 0 0
          0 0 0 0 0 0
          0 0 0 0 0 0
          0 0 0 0 0 0
          0 0 0 0 0 0
          0 0 0 0 0 0
          0 0 0 0 0 0
          0 0 0 0 0 0
          0 0 0 0 0 0
          0 0 0 0 0 0
          0 0 0 0 0 0
          0 0 0 0 0 0
          0 0 0 0 0 0
          0 0 0 0 0 0
          0 0 0 0 0 0
          0 0 0 0 0 0
          0 0 0 0 0 0
          0 0 0 0 0 0
          0 0 0 0 0 0
          0 0 0 0 0 0
          0 0 0 0 0 0
          0 0 0 0 0 0
          0 0 0 0 0 0
          0 0 0 0 0 0
          0 0 0 0 0 0
          0 0 0 0 0 0
          0 0 0 0 0 0
          0 0 0 0 0 0
          0 0 0 0 0 0
          0 0 0 0 0 0
          0 0 0 0 0 0
          0 0 0 0 0 0
          0 0 0 0 0 0
          0 0 0 0 0 0
          0 0 0 0 0 0
          0 0 0 0 0 0
          0 0 0 0 0 0
          0 0 0 0 0 0
          0 0 0 0 0 0
          0 0 0 0 0 0
          0 0 0 0 0 0
          0 0 0 0 0 0
          0 0 0 0 0 0
          0 0 0 0 0 0
          0 0 0 0 0 0
          0 0 0 0 0 0
          0 0 0 0 0 0
          0 0 0 0 0 0
          0 0 0 0 0 0
          0 0 0 0 0 0
          0 0 0 0 0 0
          0 0 0 0 0 0
          0 0 0 0 0 0
          0 0 0 0 0 0
          0 0 0 0 0 0
          0 0 0 0 0 0
          0 0 0 0 0 0
          0 0 0 0 0 0
          0 0 0 0 0 0
          0 0 0 0 0 0
          0 0 0 0 0 0
          0 0 0 0 0 0
          0 0 0 0 0 0
          0 0 0 0 0 0
          0 0 0 0 0 0
          0 0 0 0 0 0
          0 0 0 0 0 0
          0 0 0 0 0 0
          0 0 0 0 0 0
          0 0 0 0 0 0
          0 0 0 0 0 0
          0 0 0 0 0 0
          0 0 0 0 0 0
          0 0 0 0 0 0
          0 0 0 0 0 0
          0 0 0 0 0 0
          0 0 0 0 0 0
          0 0 0 0 0 0
          0 0 0 0 0 0
          0 0 0 0 0 0
          0 0 0 0 0 0
          0 0 0 0 0 0
          0 0 0 0 0 0
          0 0 0 0 0 0
          0 0 0 0 0 0
          0 0 0 0 0 0
          0 0 0 0 0 0
          0 0 0 0 0 0
          0 0 0 0 0 0
          0 0 0 0 0 0
          0 0 0 0 0 0
          0 0 0 0 0 0
          0 0 0 0 0 0
          0 0 0 0 0 0
          0 0 0 0 0 0
          0 0 0 0 0 0
          0 0 0 0 0 0
          0 0 0 0 0 0
          0 0 0 0 0 0
          0 0 0 0 0 0
          0 0 0 0 0 0
          0 0 0 0 0 0
          0 0 0 0 0 0
          0 0 0 0 0 0
          0 0 0 0 0 0
          0 0 0 0 0 0
          0 0 0 0 0 0
          0 0 0 0 0 0
          0 0 0 0 0 0
          0 0 0 0 0 0
          0 0 0 0 0 0
          0 0 0 0 0 0
          0 0 0 0 0 0
          0 0 0 0 0 0
          0 0 0 0 0 0
          0 0 0 0 0 0
          0 0 0 0 0 0
          0 0 0 0 0 0
          0 0 0 0 0 0
          0 0 0 0 0 0
          0 0 0 0 0 0
          0 0 0 0 0 0
          0 0 0 0 0 0
          0 0 0 0 0 0
          0 0 0 0 0 0
          0 0 0 0 0 0
          0 0 0 0 0 0
          0 0 0 0 0 0
          0 0 0 0 0 0
          0 0 0 0 0 0
          0 0 0 0 0 0
          0 0 0 0 0 0
          0 0 0 0 0 0
          0 0 0 0 0 0
          0 0 0 0 0 0
          0 0 0 0 0 0
          0 0 0 0 0 0
          0 0 0 0 0 0
          0 0 0 0 0 0
          0 0 0 0 0 0
          0 0 0 0 0 0
          0 0 0 0 0 0
          0 0 0 0 0 0
          0 0 0 0 0 0
          0 0 0 0 0 0
          0 0 0 0 0 0
          0 0 0 0 0 0
          0 0 0 0 0 0
          0 0 0 0 0 0
          0 0 0 0 0 0
          0 0 0 0 0 0
          0 0 0 0 0 0
          0 0 0 0 0 0
          0 0 0 0 0 0
          0 0 0 0 0 0
          0 0 0 0 0 0
          0 0 0 0 0 0
          0 0 0 0 0 0
          0 0 0 0 0 0
          0 0 0 0 0 0
          0 0 0 0 0 0
          0 0 0 0 0 0
          0 0 0 0 0 0
          0 0 0 0 0 0
          0 0 0 0 0 0
          0 0 0 0 0 0
          0 0 0 0 0 0
          0 0 0 0 0 0
          0 0 0 0 0 0
          0 0 0 0 0 0
          0 0 0 0 0 0
          0 0 0 0 0 0
          0 0 0 0 0 0
          0 0 0 0 0 0
          0 0 0 0 0 0
          0 0 0 0 0 0
          0 0 0 0 0 0
          0 0 0 0 0 0
          0 0 0 0 0 0
          0 0 0 0 0 0
          0 0 0 0 0 0
          0 0 0 0 0 0
          0 0 0 0 0 0
          0 0 0 0 0 0
          0 0 0 0 0 0
          0 0 0 0 0 0
          0 0 0 0 0 0
          0 0 0 0 0 0
          0 0 0 0 0 0
          0 0 0 0 0 0
          0 0 0 0 0 0
          0 0 0 0 0 0
          0 0 0 0 0 0
          0 0 0 0 0 0
          0 0 0 0 0 0
          0 0 0 0 0 0
          0 0 0 0 0 0
          0 0 0 0 0 0
          0 0 0 0 0 0
          0 0 0 0 0 0
          0 0 0 0 0 0
          0 0 0 0 0 0
          0 0 0 0 0 0
          0 0 0 0 0 0
          0 0 0 0 0 0
          0 0 0 0 0 0
          0 0 0 0 0 0
          0 0 0 0 0 0
          0 0 0 0 0 0
          0 0 0 0 0 0
          0 0 0 0 0 0
          0 0 0 0 0 0
          0 0 0 0 0 0
          0 0 0 0 0 0
          0 0 0 0 0 0
          0 0 0 0 0 0
          0 0 0 0 0 0
          0 0 0 0 0 0
          0 0 0 0 0 0
          0 0 0 0 0 0
          0 0 0 0 0 0
          0 0 0 0 0 0
          0 0 0 0 0 0
          0 0 0 0 0 0
          0 0 0 0 0 0
          0 0 0 0 0 0
          0 0 0 0 0 0
          0 0 0 0 0 0
          0 0 0 0 0 0
          0 0 0 0 0 0
          0 0 0 0 0 0
          0 0 0 0 0 0
          0 0 0 0 0 0
          0 0 0 0 0 0
          0 0 0 0 0 0
          0 0 0 0 0 0
          0 0 0 0 0 0
          0 0 0 0 0 0
          0 0 0 0 0 0
          0 0 0 0 0 0
          0 0 0 0 0 0
          0 0 0 0 0 0
          0 0 0 0 0 0
          0 0 0 0 0 0
          0 0 0 0 0 0
          0 0 0 0 0 0
          0 0 0 0 0 0
          0 0 0 0 0 0
          0 0 0 0 0 0
          0 0 0 0 0 0
          0 0 0 0 0 0
          0 0 0 0 0 0
          0 0 0 0 0 0
          0 0 0 0 0 0
          0 0 0 0 0 0
          0 0 0 0 0 0
          0 0 0 0 0 0
          0 0 0 0 0 0
          0 0 0 0 0 0
          0 0 0 0 0 0
          0 0 0 0 0 0
          0 0 0 0 0 0
          0 0 0 0 0 0
          0 0 0 0 0 0
          0 0 0 0 0 0
          0 0 0 0 0 0
          0 0 0 0 0 0
          0 0 0 0 0 0
          0 0 0 0 0 0
          0 0 0 0 0 0
          0 0 0 0 0 0
          0 0 0 0 0 0
          0 0 0 0 0 0
          0 0 0 0 0 0
          0 0 0 0 0 0
          0 0 0 0 0 0
          0 0 0 0 0 0
          0 0 0 0 0 0
          0 0 0 0 0 0
          0 0 0 0 0 0
          0 0 0 0 0 0
          0 0 0 0 0 0
          0 0 0 0 0 0
          0 0 0 0 0 0
          0 0 0 0 0 0
          0 0 0 0 0 0
          0 0 0 0 0 0
          0 0 0 0 0 0
          0 0 0 0 0 0
          0 0 0 0 0 0
          0 0 0 0 0 0
          0 0 0 0 0 0
          0 0 0 0 0 0
          0 0 0 0 0 0
          0 0 0 0 0 0
          0 0 0 0 0 0
          0 0 0 0 0 0
          0 0 0 0 0 0
          0 0 0 0 0 0
          0 0 0 0 0 0
          0 0 0 0 0 0
          0 0 0 0 0 0
          0 0 0 0 0 0
          0 0 0 0 0 0
          0 0 0 0 0 0
          0 0 0 0 0 0
          0 0 0 0 0 0
          0 0 0 0 0 0
          0 0 0 0 0 0
          0 0 0 0 0 0
          0 0 0 0 0 0
          0 0 0 0 0 0
          0 0 0 0 0 0
          0 0 0 0 0 0
          0 0 0 0 0 0
          0 0 0 0 0 0
          0 0 0 0 0 0
          0 0 0 0 0 0
          0 0 0 0 0 0
          0 0 0 0 0 0
          0 0 0 0 0 0
          0 0 0 0 0 0
          0 0 0 0 0 0
          0 0 0 0 0 0
          0 0 0 0 0 0
          0 0 0 0 0 0
          0 0 0 0 0 0
          0 0 0 0 0 0
          0 0 0 0 0 0
          0 0 0 0 0 0
          0 0 0 0 0 0
          0 0 0 0 0 0
          0 0 0 0 0 0
          0 0 0 0 0 0
          0 0 0 0 0 0
          0 0 0 0 0 0
          0 0 0 0 0 0
          0 0 0 0 0 0
          0 0 0 0 0 0
          0 0 0 0 0 0
          0 0 0 0 0 0
          0 0 0 0 0 0
          0 0 0 0 0 0
          0 0 0 0 0 0
          0 0 0 0 0 0
          0 0 0 0 0 0
          0 0 0 0 0 0
          0 0 0 0 0 0
          0 0 0 0 0 0
          0 0 0 0 0 0
          0 0 0 0 0 0
          0 0 0 0 0 0
          0 0 0 0 0 0
          0 0 0 0 0 0
          0 0 0 0 0 0
          0 0 0 0 0 0
          0 0 0 0 0 0
          0 0 0 0 0 0
          0 0 0 0 0 0
          0 0 0 0 0 0
          0 0 0 0 0 0
          0 0 0 0 0 0
          0 0 0 0 0 0
          0 0 0 0 0 0
          0 0 0 0 0 0
          0 0 0 0 0 0
          0 0 0 0 0 0
          0 0 0 0 0 0
          0 0 0 0 0 0
          0 0 0 0 0 0
          0 0 0 0 0 0
          0 0 0 0 0 0
          0 0 0 0 0 0
          0 0 0 0 0 0
          0 0 0 0 0 0
          0 0 0 0 0 0
          0 0 0 0 0 0
          0 0 0 0 0 0
          0 0 0 0 0 0
          0 0 0 0 0 0
          0 0 0 0 0 0
          0 0 0 0 0 0
          0 0 0 0 0 0
          0 0 0 0 0 0
          0 0 0 0 0 0
          0 0 0 0 0 0
          0 0 0 0 0 0
          0 0 0 0 0 0
          0 0 0 0 0 0
          0 0 0 0 0 0
          0 0 0 0 0 0
          0 0 0 0 0 0
          0 0 0 0 0 0
          0 0 0 0 0 0
          0 0 0 0 0 0
          0 0 0 0 0 0
          0 0 0 0 0 0
          0 0 0 0 0 0
          0 0 0 0 0 0
          0 0 0 0 0 0
          0 0 0 0 0 0
          0 0 0 0 0 0
          0 0 0 0 0 0
          0 0 0 0 0 0
          0 0 0 0 0 0
          0 0 0 0 0 0
          0 0 0 0 0 0
          0 0 0 0 0 0
          0 0 0 0 0 0
          0 0 0 0 0 0
          0 0 0 0 0 0
          0 0 0 0 0 0
          0 0 0 0 0 0
          0 0 0 0 0 0
          0 0 0 0 0 0
          0 0 0 0 0 0
          0 0 0 0 0 0
          0 0 0 0 0 0
          0 0 0 0 0 0
          0 0 0 0 0 0
          0 0 0 0 0 0
          0 0 0 0 0 0
          0 0 0 0 0 0
          0 0 0 0 0 0
          0 0 0 0 0 0
          0 0 0 0 0 0
          0 0 0 0 0 0
          0 0 0 0 0 0
          0 0 0 0 0 0
          0 0 0 0 0 0
          0 0 0 0 0 0
          0 0 0 0 0 0
          0 0 0 0 0 0
          0 0 0 0 0 0
          0 0 0 0 0 0
          0 0 0 0 0 0
          0 0 0 0 0 0
          0 0 0 0 0 0
          0 0 0 0 0 0
          0 0 0 0 0 0
          0 0 0 0 0 0
          0 0 0 0 0 0
          0 0 0 0 0 0
          0 0 0 0 0 0
          0 0 0 0 0 0
          0 0 0 0 0 0
          0 0 0 0 0 0
          0 0 0 0 0 0
          0 0 0 0 0 0
          0 0 0 0 0 0
          0 0 0 0 0 0
          0 0 0 0 0 0
          0 0 0 0 0 0
          0 0 0 0 0 0
          0 0 0 0 0 0
          0 0 0 0 0 0
          0 0 0 0 0 0
          0 0 0 0 0 0
          0 0 0 0 0 0
          0 0 0 0 0 0
          0 0 0 0 0 0
          0 0 0 0 0 0
          0 0 0 0 0 0
          0 0 0 0 0 0
          0 0 0 0 0 0
          0 0 0 0 0 0
          0 0 0 0 0 0
          0 0 0 0 0 0
          0 0 0 0 0 0
          0 0 0 0 0 0
          0 0 0 0 0 0
          0 0 0 0 0 0
          0 0 0 0 0 0
          0 0 0 0 0 0
          0 0 0 0 0 0
          0 0 0 0 0 0
          0 0 0 0 0 0
          0 0 0 0 0 0
          0 0 0 0 0 0
          0 0 0 0 0 0
          0 0 0 0 0 0
          0 0 0 0 0 0
          0 0 0 0 0 0
          0 0 0 0 0 0
          0 0 0 0 0 0
          0 0 0 0 0 0
          0 0 0 0 0 0
          0 0 0 0 0 0
          0 0 0 0 0 0
          0 0 0 0 0 0
          0 0 0 0 0 0
          0 0 0 0 0 0
          0 0 0 0 0 0
          0 0 0 0 0 0
          0 0 0 0 0 0
          0 0 0 0 0 0
          0 0 0 0 0 0
          0 0 0 0 0 0
          0 0 0 0 0 0
          0 0 0 0 0 0
          0 0 0 0 0 0
          0 0 0 0 0 0
          0 0 0 0 0 0
          0 0 0 0 0 0
          0 0 0 0 0 0
          0 0 0 0 0 0
          0 0 0 0 0 0
          0 0 0 0 0 0
          0 0 0 0 0 0
          0 0 0 0 0 0
          0 0 0 0 0 0
          0 0 0 0 0 0
          0 0 0 0 0 0
          0 0 0 0 0 0
          0 0 0 0 0 0
          0 0 0 0 0 0
          0 0 0 0 0 0
          0 0 0 0 0 0
          0 0 0 0 0 0
          0 0 0 0 0 0
          0 0 0 0 0 0
          0 0 0 0 0 0
          0 0 0 0 0 0
          0 0 0 0 0 0
          0 0 0 0 0 0
          0 0 0 0 0 0
          0 0 0 0 0 0
          0 0 0 0 0 0
          0 0 0 0 0 0
          0 0 0 0 0 0
          0 0 0 0 0 0
          0 0 0 0 0 0
          0 0 0 0 0 0
          0 0 0 0 0 0
          0 0 0 0 0 0
          0 0 0 0 0 0
          0 0 0 0 0 0
          0 0 0 0 0 0
          0 0 0 0 0 0
          0 0 0 0 0 0
          0 0 0 0 0 0
          0 0 0 0 0 0
          0 0 0 0 0 0
          0 0 0 0 0 0
          0 0 0 0 0 0
          0 0 0 0 0 0
          0 0 0 0 0 0
          0 0 0 0 0 0
          0 0 0 0 0 0
          0 0 0 0 0 0
          0 0 0 0 0 0
          0 0 0 0 0 0
          0 0 0 0 0 0
          0 0 0 0 0 0
          0 0 0 0 0 0
          0 0 0 0 0 0
          0 0 0 0 0 0
          0 0 0 0 0 0
          0 0 0 0 0 0
          0 0 0 0 0 0
          0 0 0 0 0 0
          0 0 0 0 0 0
          0 0 0 0 0 0
          0 0 0 0 0 0
          0 0 0 0 0 0
          0 0 0 0 0 0
          0 0 0 0 0 0
          0 0 0 0 0 0
          0 0 0 0 0 0
          0 0 0 0 0 0
          0 0 0 0 0 0
          0 0 0 0 0 0
          0 0 0 0 0 0
          0 0 0 0 0 0
          0 0 0 0 0 0
          0 0 0 0 0 0
          0 0 0 0 0 0
          0 0 0 0 0 0
          0 0 0 0 0 0
          0 0 0 0 0 0
          0 0 0 0 0 0
          0 0 0 0 0 0
          0 0 0 0 0 0
          0 0 0 0 0 0
          0 0 0 0 0 0
          0 0 0 0 0 0
          0 0 0 0 0 0
          0 0 0 0 0 0
          0 0 0 0 0 0
          0 0 0 0 0 0
          0 0 0 0 0 0
          0 0 0 0 0 0
          0 0 0 0 0 0
          0 0 0 0 0 0
          0 0 0 0 0 0
          0 0 0 0 0 0
          0 0 0 0 0 0
          0 0 0 0 0 0
          0 0 0 0 0 0
          0 0 0 0 0 0
          0 0 0 0 0 0
          0 0 0 0 0 0
          0 0 0 0 0 0
          0 0 0 0 0 0
          0 0 0 0 0 0
          0 0 0 0 0 0
          0 0 0 0 0 0
          0 0 0 0 0 0
          0 0 0 0 0 0
          0 0 0 0 0 0
          0 0 0 0 0 0
          0 0 0 0 0 0
          0 0 0 0 0 0
          0 0 0 0 0 0
          0 0 0 0 0 0
          0 0 0 0 0 0
          0 0 0 0 0 0
          0 0 0 0 0 0
          0 0 0 0 0 0
          0 0 0 0 0 0
          0 0 0 0 0 0
          0 0 0 0 0 0
          0 0 0 0 0 0
          0 0 0 0 0 0
          0 0 0 0 0 0
          0 0 0 0 0 0
          0 0 0 0 0 0
          0 0 0 0 0 0
          0 0 0 0 0 0
          0 0 0 0 0 0
          0 0 0 0 0 0
          0 0 0 0 0 0
          0 0 0 0 0 0
          0 0 0 0 0 0
          0 0 0 0 0 0
          0 0 0 0 0 0
          0 0 0 0 0 0
          0 0 0 0 0 0
          0 0 0 0 0 0
          0 0 0 0 0 0
          0 0 0 0 0 0
          0 0 0 0 0 0
          0 0 0 0 0 0
          0 0 0 0 0 0
          0 0 0 0 0 0
          0 0 0 0 0 0
          0 0 0 0 0 0
          0 0 0 0 0 0
          0 0 0 0 0 0
          0 0 0 0 0 0
          0 0 0 0 0 0
          0 0 0 0 0 0
          0 0 0 0 0 0
          0 0 0 0 0 0
          0 0 0 0 0 0
          0 0 0 0 0 0
          0 0 0 0 0 0
          0 0 0 0 0 0
          0 0 0 0 0 0
          0 0 0 0 0 0
          0 0 0 0 0 0
          0 0 0 0 0 0
          0 0 0 0 0 0
          0 0 0 0 0 0
          0 0 0 0 0 0
          0 0 0 0 0 0
          0 0 0 0 0 0
          0 0 0 0 0 0
          0 0 0 0 0 0
          0 0 0 0 0 0
          0 0 0 0 0 0
          0 0 0 0 0 0
          0 0 0 0 0 0
          0 0 0 0 0 0
          0 0 0 0 0 0
          0 0 0 0 0 0
          0 0 0 0 0 0
          0 0 0 0 0 0
          0 0 0 0 0 0
          0 0 0 0 0 0
          0 0 0 0 0 0
          0 0 0 0 0 0
          0 0 0 0 0 0
          0 0 0 0 0 0
          0 0 0 0 0 0
          0 0 0 0 0 0
          0 0 0 0 0 0
          0 0 0 0 0 0
          0 0 0 0 0 0
          0 0 0 0 0 0
          0 0 0 0 0 0
          0 0 0 0 0 0
          0 0 0 0 0 0
          0 0 0 0 0 0
          0 0 0 0 0 0
          0 0 0 0 0 0
          0 0 0 0 0 0
          0 0 0 0 0 0
          0 0 0 0 0 0
          0 0 0 0 0 0
          0 0 0 0 0 0
          0 0 0 0 0 0
          0 0 0 0 0 0
          0 0 0 0 0 0
          0 0 0 0 0 0
          0 0 0 0 0 0
          0 0 0 0 0 0
          0 0 0 0 0 0
          0 0 0 0 0 0
          0 0 0 0 0 0
          0 0 0 0 0 0
          0 0 0 0 0 0
          0 0 0 0 0 0
          0 0 0 0 0 0
          0 0 0 0 0 0
          0 0 0 0 0 0
          0 0 0 0 0 0
          0 0 0 0 0 0
          0 0 0 0 0 0
          0 0 0 0 0 0
          0 0 0 0 0 0
          0 0 0 0 0 0
          0 0 0 0 0 0
          0 0 0 0 0 0
          0 0 0 0 0 0
          0 0 0 0 0 0
          0 0 0 0 0 0
          0 0 0 0 0 0
          0 0 0 0 0 0
          0 0 0 0 0 0
          0 0 0 0 0 0
          0 0 0 0 0 0
          0 0 0 0 0 0
          0 0 0 0 0 0
          0 0 0 0 0 0
          0 0 0 0 0 0
          0 0 0 0 0 0
          0 0 0 0 0 0
          0 0 0 0 0 0
          0 0 0 0 0 0
          0 0 0 0 0 0
          0 0 0 0 0 0
          0 0 0 0 0 0
          0 0 0 0 0 0
          0 0 0 0 0 0
          0 0 0 0 0 0
          0 0 0 0 0 0
          0 0 0 0 0 0
          0 0 0 0 0 0
          0 0 0 0 0 0
          0 0 0 0 0 0
          0 0 0 0 0 0
          0 0 0 0 0 0
          0 0 0 0 0 0
          0 0 0 0 0 0
          0 0 0 0 0 0
          0 0 0 0 0 0
          0 0 0 0 0 0
          0 0 0 0 0 0
          0 0 0 0 0 0
          0 0 0 0 0 0
          0 0 0 0 0 0
          0 0 0 0 0 0
          0 0 0 0 0 0
          0 0 0 0 0 0
          0 0 0 0 0 0
          0 0 0 0 0 0
          0 0 0 0 0 0
          0 0 0 0 0 0
          0 0 0 0 0 0
          0 0 0 0 0 0
          0 0 0 0 0 0
          0 0 0 0 0 0
          0 0 0 0 0 0
          0 0 0 0 0 0
          0 0 0 0 0 0
          0 0 0 0 0 0
          0 0 0 0 0 0
          0 0 0 0 0 0
          0 0 0 0 0 0
          0 0 0 0 0 0
          0 0 0 0 0 0
          0 0 0 0 0 0
          0 0 0 0 0 0
          0 0 0 0 0 0
          0 0 0 0 0 0
          0 0 0 0 0 0
          0 0 0 0 0 0
          0 0 0 0 0 0
          0 0 0 0 0 0
          0 0 0 0 0 0
          0 0 0 0 0 0
          0 0 0 0 0 0
          0 0 0 0 0 0
          0 0 0 0 0 0
          0 0 0 0 0 0
          0 0 0 0 0 0
          0 0 0 0 0 0
          0 0 0 0 0 0
          0 0 0 0 0 0
          0 0 0 0 0 0
          0 0 0 0 0 0
          0 0 0 0 0 0
          0 0 0 0 0 0
          0 0 0 0 0 0
          0 0 0 0 0 0
          0 0 0 0 0 0
          0 0 0 0 0 0
          0 0 0 0 0 0
          0 0 0 0 0 0
          0 0 0 0 0 0
          0 0 0 0 0 0
          0 0 0 0 0 0
          0 0 0 0 0 0
          0 0 0 0 0 0
          0 0 0 0 0 0
          0 0 0 0 0 0
          0 0 0 0 0 0
          0 0 0 0 0 0
          0 0 0 0 0 0
          0 0 0 0 0 0
          0 0 0 0 0 0
          0 0 0 0 0 0
          0 0 0 0 0 0
          0 0 0 0 0 0
          0 0 0 0 0 0
          0 0 0 0 0 0
          0 0 0 0 0 0
          0 0 0 0 0 0
          0 0 0 0 0 0
          0 0 0 0 0 0
          0 0 0 0 0 0
          0 0 0 0 0 0
          0 0 0 0 0 0
          0 0 0 0 0 0
          0 0 0 0 0 0
          0 0 0 0 0 0
          0 0 0 0 0 0
          0 0 0 0 0 0
          0 0 0 0 0 0
          0 0 0 0 0 0
          0 0 0 0 0 0
          0 0 0 0 0 0
          0 0 0 0 0 0
          0 0 0 0 0 0
          0 0 0 0 0 0
          0 0 0 0 0 0
          0 0 0 0 0 0
          0 0 0 0 0 0
          0 0 0 0 0 0
          0 0 0 0 0 0
          0 0 0 0 0 0
          0 0 0 0 0 0
          0 0 0 0 0 0
          0 0 0 0 0 0
          0 0 0 0 0 0
          0 0 0 0 0 0
          0 0 0 0 0 0
          0 0 0 0 0 0
          0 0 0 0 0 0
          0 0 0 0 0 0
          0 0 0 0 0 0
          0 0 0 0 0 0
          0 0 0 0 0 0
          0 0 0 0 0 0
          0 0 0 0 0 0
          0 0 0 0 0 0
          0 0 0 0 0 0
          0 0 0 0 0 0
          0 0 0 0 0 0
          0 0 0 0 0 0
          0 0 0 0 0 0
          0 0 0 0 0 0
          0 0 0 0 0 0
          0 0 0 0 0 0
          0 0 0 0 0 0
          0 0 0 0 0 0
          0 0 0 0 0 0
          0 0 0 0 0 0
          0 0 0 0 0 0
          0 0 0 0 0 0
          0 0 0 0 0 0
          0 0 0 0 0 0
          0 0 0 0 0 0
          0 0 0 0 0 0
          0 0 0 0 0 0
          0 0 0 0 0 0
          0 0 0 0 0 0
          0 0 0 0 0 0
          0 0 0 0 0 0
          0 0 0 0 0 0
          0 0 0 0 0 0
          0 0 0 0 0 0
          0 0 0 0 0 0
          0 0 0 0 0 0
          0 0 0 0 0 0
          0 0 0 0 0 0
          0 0 0 0 0 0
          0 0 0 0 0 0
          0 0 0 0 0 0
          0 0 0 0 0 0
          0 0 0 0 0 0
          0 0 0 0 0 0
          0 0 0 0 0 0
          0 0 0 0 0 0
          0 0 0 0 0 0
          0 0 0 0 0 0
          0 0 0 0 0 0
          0 0 0 0 0 0
          0 0 0 0 0 0
          0 0 0 0 0 0
          0 0 0 0 0 0
          0 0 0 0 0 0
          0 0 0 0 0 0
          0 0 0 0 0 0
          0 0 0 0 0 0
          0 0 0 0 0 0
          0 0 0 0 0 0
          0 0 0 0 0 0
          0 0 0 0 0 0
          0 0 0 0 0 0
          0 0 0 0 0 0
          0 0 0 0 0 0
          0 0 0 0 0 0
          0 0 0 0 0 0
          0 0 0 0 0 0
          0 0 0 0 0 0
          0 0 0 0 0 0
          0 0 0 0 0 0
          0 0 0 0 0 0
          0 0 0 0 0 0
          0 0 0 0 0 0
          0 0 0 0 0 0
          0 0 0 0 0 0
          0 0 0 0 0 0
          0 0 0 0 0 0
          0 0 0 0 0 0
          0 0 0 0 0 0
          0 0 0 0 0 0
          0 0 0 0 0 0
          0 0 0 0 0 0
          0 0 0 0 0 0
          0 0 0 0 0 0
          0 0 0 0 0 0
          0 0 0 0 0 0
          0 0 0 0 0 0
          0 0 0 0 0 0
          0 0 0 0 0 0
          0 0 0 0 0 0
          0 0 0 0 0 0
          0 0 0 0 0 0
          0 0 0 0 0 0
          0 0 0 0 0 0
          0 0 0 0 0 0
          0 0 0 0 0 0
          0 0 0 0 0 0
          0 0 0 0 0 0
          0 0 0 0 0 0
          0 0 0 0 0 0
          0 0 0 0 0 0
          0 0 0 0 0 0
          0 0 0 0 0 0
          0 0 0 0 0 0
          0 0 0 0 0 0
          0 0 0 0 0 0
          0 0 0 0 0 0
          0 0 0 0 0 0
          0 0 0 0 0 0
          0 0 0 0 0 0
          0 0 0 0 0 0
          0 0 0 0 0 0
          0 0 0 0 0 0
          0 0 0 0 0 0
          0 0 0 0 0 0
          0 0 0 0 0 0
          0 0 0 0 0 0
          0 0 0 0 0 0
          0 0 0 0 0 0
          0 0 0 0 0 0
          0 0 0 0 0 0
          0 0 0 0 0 0
          0 0 0 0 0 0
          0 0 0 0 0 0
          0 0 0 0 0 0
          0 0 0 0 0 0
          0 0 0 0 0 0
          0 0 0 0 0 0
          0 0 0 0 0 0
          0 0 0 0 0 0
          0 0 0 0 0 0
          0 0 0 0 0 0
          0 0 0 0 0 0
          0 0 0 0 0 0
          0 0 0 0 0 0
          0 0 0 0 0 0
          0 0 0 0 0 0
          0 0 0 0 0 0
          0 0 0 0 0 0
          0 0 0 0 0 0
          0 0 0 0 0 0
          0 0 0 0 0 0
          0 0 0 0 0 0
          0 0 0 0 0 0
          0 0 0 0 0 0
          0 0 0 0 0 0
          0 0 0 0 0 0
          0 0 0 0 0 0
          0 0 0 0 0 0
          0 0 0 0 0 0
          0 0 0 0 0 0
          0 0 0 0 0 0
          0 0 0 0 0 0
          0 0 0 0 0 0
          0 0 0 0 0 0
          0 0 0 0 0 0
          0 0 0 0 0 0
          0 0 0 0 0 0
          0 0 0 0 0 0
          0 0 0 0 0 0
          0 0 0 0 0 0
          0 0 0 0 0 0
          0 0 0 0 0 0
          0 0 0 0 0 0
          0 0 0 0 0 0
          0 0 0 0 0 0
          0 0 0 0 0 0
          0 0 0 0 0 0
          0 0 0 0 0 0
          0 0 0 0 0 0
          0 0 0 0 0 0
          0 0 0 0 0 0
          0 0 0 0 0 0
          0 0 0 0 0 0
          0 0 0 0 0 0
          0 0 0 0 0 0
          0 0 0 0 0 0
          0 0 0 0 0 0
          0 0 0 0 0 0
          0 0 0 0 0 0
          0 0 0 0 0 0
          0 0 0 0 0 0
          0 0 0 0 0 0
          0 0 0 0 0 0
          0 0 0 0 0 0
          0 0 0 0 0 0
          0 0 0 0 0 0
          0 0 0 0 0 0
          0 0 0 0 0 0
          0 0 0 0 0 0
          0 0 0 0 0 0
          0 0 0 0 0 0
          0 0 0 0 0 0
          0 0 0 0 0 0
          0 0 0 0 0 0
          0 0 0 0 0 0
          0 0 0 0 0 0
          0 0 0 0 0 0
          0 0 0 0 0 0
          0 0 0 0 0 0
          0 0 0 0 0 0
          0 0 0 0 0 0
          0 0 0 0 0 0
          0 0 0 0 0 0
          0 0 0 0 0 0
          0 0 0 0 0 0
          0 0 0 0 0 0
          0 0 0 0 0 0
          0 0 0 0 0 0
          0 0 0 0 0 0
          0 0 0 0 0 0
          0 0 0 0 0 0
          0 0 0 0 0 0
          0 0 0 0 0 0
          0 0 0 0 0 0
          0 0 0 0 0 0
          0 0 0 0 0 0
          0 0 0 0 0 0
          0 0 0 0 0 0
          0 0 0 0 0 0
          0 0 0 0 0 0
          0 0 0 0 0 0
          0 0 0 0 0 0
          0 0 0 0 0 0
          0 0 0 0 0 0
          0 0 0 0 0 0
          0 0 0 0 0 0
          0 0 0 0 0 0
          0 0 0 0 0 0
          0 0 0 0 0 0
          0 0 0 0 0 0
          0 0 0 0 0 0
          0 0 0 0 0 0
          0 0 0 0 0 0
          0 0 0 0 0 0
          0 0 0 0 0 0
          0 0 0 0 0 0
          0 0 0 0 0 0
          0 0 0 0 0 0
          0 0 0 0 0 0
          0 0 0 0 0 0
          0 0 0 0 0 0
          0 0 0 0 0 0
          0 0 0 0 0 0
          0 0 0 0 0 0
          0 0 0 0 0 0
          0 0 0 0 0 0
          0 0 0 0 0 0
          0 0 0 0 0 0
          0 0 0 0 0 0
          0 0 0 0 0 0
          0 0 0 0 0 0
          0 0 0 0 0 0
          0 0 0 0 0 0
          0 0 0 0 0 0
          0 0 0 0 0 0
          0 0 0 0 0 0
          0 0 0 0 0 0
          0 0 0 0 0 0
          0 0 0 0 0 0
          0 0 0 0 0 0
          0 0 0 0 0 0
          0 0 0 0 0 0
          0 0 0 0 0 0
          0 0 0 0 0 0
          0 0 0 0 0 0
          0 0 0 0 0 0
          0 0 0 0 0 0
          0 0 0 0 0 0
          0 0 0 0 0 0
          0 0 0 0 0 0
          0 0 0 0 0 0
          0 0 0 0 0 0
          0 0 0 0 0 0
          0 0 0 0 0 0
          0 0 0 0 0 0
          0 0 0 0 0 0
          0 0 0 0 0 0
          0 0 0 0 0 0
          0 0 0 0 0 0
          0 0 0 0 0 0
          0 0 0 0 0 0
          0 0 0 0 0 0
          0 0 0 0 0 0
          0 0 0 0 0 0
          0 0 0 0 0 0
          0 0 0 0 0 0
          0 0 0 0 0 0
          0 0 0 0 0 0
          0 0 0 0 0 0
          0 0 0 0 0 0
          0 0 0 0 0 0
          0 0 0 0 0 0
          0 0 0 0 0 0
          0 0 0 0 0 0
          0 0 0 0 0 0
          0 0 0 0 0 0
          0 0 0 0 0 0
          0 0 0 0 0 0
          0 0 0 0 0 0
          0 0 0 0 0 0
          0 0 0 0 0 0
          0 0 0 0 0 0
          0 0 0 0 0 0
          0 0 0 0 0 0
          0 0 0 0 0 0
          0 0 0 0 0 0
          0 0 0 0 0 0
          0 0 0 0 0 0
          0 0 0 0 0 0
          0 0 0 0 0 0
          0 0 0 0 0 0
          0 0 0 0 0 0
          0 0 0 0 0 0
          0 0 0 0 0 0
          0 0 0 0 0 0
          0 0 0 0 0 0
          0 0 0 0 0 0
          0 0 0 0 0 0
          0 0 0 0 0 0
          0 0 0 0 0 0
          0 0 0 0 0 0
          0 0 0 0 0 0
          0 0 0 0 0 0
          0 0 0 0 0 0
          0 0 0 0 0 0
          0 0 0 0 0 0
          0 0 0 0 0 0
          0 0 0 0 0 0
          0 0 0 0 0 0
          0 0 0 0 0 0
          0 0 0 0 0 0
          0 0 0 0 0 0
          0 0 0 0 0 0
          0 0 0 0 0 0
          0 0 0 0 0 0
          0 0 0 0 0 0
          0 0 0 0 0 0
          0 0 0 0 0 0
          0 0 0 0 0 0
          0 0 0 0 0 0
          0 0 0 0 0 0
          0 0 0 0 0 0
          0 0 0 0 0 0
          0 0 0 0 0 0
          0 0 0 0 0 0
          0 0 0 0 0 0
          0 0 0 0 0 0
          0 0 0 0 0 0
          0 0 0 0 0 0
          0 0 0 0 0 0
          0 0 0 0 0 0
          0 0 0 0 0 0
          0 0 0 0 0 0
          0 0 0 0 0 0
          0 0 0 0 0 0
          0 0 0 0 0 0
          0 0 0 0 0 0
          0 0 0 0 0 0
          0 0 0 0 0 0
          0 0 0 0 0 0
          0 0 0 0 0 0
          0 0 0 0 0 0
          0 0 0 0 0 0
          0 0 0 0 0 0
          0 0 0 0 0 0
          0 0 0 0 0 0
          0 0 0 0 0 0
          0 0 0 0 0 0
          0 0 0 0 0 0
          0 0 0 0 0 0
          0 0 0 0 0 0
          0 0 0 0 0 0
          0 0 0 0 0 0
          0 0 0 0 0 0
          0 0 0 0 0 0
          0 0 0 0 0 0
          0 0 0 0 0 0
          0 0 0 0 0 0
          0 0 0 0 0 0
          0 0 0 0 0 0
          0 0 0 0 0 0
          0 0 0 0 0 0
          0 0 0 0 0 0
          0 0 0 0 0 0
          0 0 0 0 0 0
          0 0 0 0 0 0
          0 0 0 0 0 0
          0 0 0 0 0 0
          0 0 0 0 0 0
          0 0 0 0 0 0
          0 0 0 0 0 0
          0 0 0 0 0 0
          0 0 0 0 0 0
          0 0 0 0 0 0
          0 0 0 0 0 0
          0 0 0 0 0 0
          0 0 0 0 0 0
          0 0 0 0 0 0
          0 0 0 0 0 0
          0 0 0 0 0 0
          0 0 0 0 0 0
          0 0 0 0 0 0
          0 0 0 0 0 0
          0 0 0 0 0 0
          0 0 0 0 0 0
          0 0 0 0 0 0
          0 0 0 0 0 0
          0 0 0 0 0 0
          0 0 0 0 0 0
          0 0 0 0 0 0
          0 0 0 0 0 0
          0 0 0 0 0 0
          0 0 0 0 0 0
          0 0 0 0 0 0
          0 0 0 0 0 0
          0 0 0 0 0 0
          0 0 0 0 0 0
          0 0 0 0 0 0
          0 0 0 0 0 0
          0 0 0 0 0 0
          0 0 0 0 0 0
          0 0 0 0 0 0
          0 0 0 0 0 0
          0 0 0 0 0 0
          0 0 0 0 0 0
          0 0 0 0 0 0
          0 0 0 0 0 0
          0 0 0 0 0 0
          0 0 0 0 0 0
          0 0 0 0 0 0
          0 0 0 0 0 0
          0 0 0 0 0 0
          0 0 0 0 0 0
          0 0 0 0 0 0
          0 0 0 0 0 0
          0 0 0 0 0 0
          0 0 0 0 0 0
          0 0 0 0 0 0
          0 0 0 0 0 0
          0 0 0 0 0 0
          0 0 0 0 0 0
          0 0 0 0 0 0
          0 0 0 0 0 0
          0 0 0 0 0 0
          0 0 0 0 0 0
          0 0 0 0 0 0
          0 0 0 0 0 0
          0 0 0 0 0 0
          0 0 0 0 0 0
          0 0 0 0 0 0
          0 0 0 0 0 0
          0 0 0 0 0 0
          0 0 0 0 0 0
          0 0 0 0 0 0
          0 0 0 0 0 0
          0 0 0 0 0 0
          0 0 0 0 0 0
          0 0 0 0 0 0
          0 0 0 0 0 0
          0 0 0 0 0 0
          0 0 0 0 0 0
          0 0 0 0 0 0
          0 0 0 0 0 0
          0 0 0 0 0 0
          0 0 0 0 0 0
          0 0 0 0 0 0
          0 0 0 0 0 0
          0 0 0 0 0 0
          0 0 0 0 0 0
          0 0 0 0 0 0
          0 0 0 0 0 0
          0 0 0 0 0 0
          0 0 0 0 0 0
          0 0 0 0 0 0
          0 0 0 0 0 0
          0 0 0 0 0 0
          0 0 0 0 0 0
          0 0 0 0 0 0
          0 0 0 0 0 0
          0 0 0 0 0 0
          0 0 0 0 0 0
          0 0 0 0 0 0
          0 0 0 0 0 0
          0 0 0 0 0 0
          0 0 0 0 0 0
          0 0 0 0 0 0
          0 0 0 0 0 0
          0 0 0 0 0 0
          0 0 0 0 0 0
          0 0 0 0 0 0
          0 0 0 0 0 0
          0 0 0 0 0 0
          0 0 0 0 0 0
          0 0 0 0 0 0
          0 0 0 0 0 0
          0 0 0 0 0 0
          0 0 0 0 0 0
          0 0 0 0 0 0
          0 0 0 0 0 0
          0 0 0 0 0 0
          0 0 0 0 0 0
          0 0 0 0 0 0
          0 0 0 0 0 0
          0 0 0 0 0 0
          0 0 0 0 0 0
          0 0 0 0 0 0
          0 0 0 0 0 0
          0 0 0 0 0 0
          0 0 0 0 0 0
          0 0 0 0 0 0
          0 0 0 0 0 0
          0 0 0 0 0 0
          0 0 0 0 0 0
          0 0 0 0 0 0
          0 0 0 0 0 0
          0 0 0 0 0 0
          0 0 0 0 0 0
          0 0 0 0 0 0
          0 0 0 0 0 0
          0 0 0 0 0 0
          0 0 0 0 0 0
          0 0 0 0 0 0
          0 0 0 0 0 0
          0 0 0 0 0 0
          0 0 0 0 0 0
          0 0 0 0 0 0
          0 0 0 0 0 0
          0 0 0 0 0 0
          0 0 0 0 0 0
          0 0 0 0 0 0
          0 0 0 0 0 0
          0 0 0 0 0 0
          0 0 0 0 0 0
          0 0 0 0 0 0
          0 0 0 0 0 0
          0 0 0 0 0 0
          0 0 0 0 0 0
          0 0 0 0 0 0
          0 0 0 0 0 0
          0 0 0 0 0 0
          0 0 0 0 0 0
          0 0 0 0 0 0
          0 0 0 0 0 0
          0 0 0 0 0 0
          0 0 0 0 0 0
          0 0 0 0 0 0
          0 0 0 0 0 0
          0 0 0 0 0 0
          0 0 0 0 0 0
          0 0 0 0 0 0
          0 0 0 0 0 0
          0 0 0 0 0 0
          0 0 0 0 0 0
          0 0 0 0 0 0
          0 0 0 0 0 0
          0 0 0 0 0 0
          0 0 0 0 0 0
          0 0 0 0 0 0
          0 0 0 0 0 0
          0 0 0 0 0 0
          0 0 0 0 0 0
          0 0 0 0 0 0
          0 0 0 0 0 0
          0 0 0 0 0 0
          0 0 0 0 0 0
          0 0 0 0 0 0
          0 0 0 0 0 0
          0 0 0 0 0 0
          0 0 0 0 0 0
          0 0 0 0 0 0
          0 0 0 0 0 0
          0 0 0 0 0 0
          0 0 0 0 0 0
          0 0 0 0 0 0
          0 0 0 0 0 0
          0 0 0 0 0 0
          0 0 0 0 0 0
          0 0 0 0 0 0
          0 0 0 0 0 0
          0 0 0 0 0 0
          0 0 0 0 0 0
          0 0 0 0 0 0
          0 0 0 0 0 0
          0 0 0 0 0 0
          0 0 0 0 0 0
          0 0 0 0 0 0
          0 0 0 0 0 0
          0 0 0 0 0 0
          0 0 0 0 0 0
          0 0 0 0 0 0
          0 0 0 0 0 0
          0 0 0 0 0 0
          0 0 0 0 0 0
          0 0 0 0 0 0
          0 0 0 0 0 0
          0 0 0 0 0 0
          0 0 0 0 0 0
          0 0 0 0 0 0
          0 0 0 0 0 0
          0 0 0 0 0 0
          0 0 0 0 0 0
          0 0 0 0 0 0
          0 0 0 0 0 0
          0 0 0 0 0 0
          0 0 0 0 0 0
          0 0 0 0 0 0
          0 0 0 0 0 0
          0 0 0 0 0 0
          0 0 0 0 0 0
          0 0 0 0 0 0
          0 0 0 0 0 0
          0 0 0 0 0 0
          0 0 0 0 0 0
          0 0 0 0 0 0
          0 0 0 0 0 0
          0 0 0 0 0 0
          0 0 0 0 0 0
          0 0 0 0 0 0
          0 0 0 0 0 0
          0 0 0 0 0 0
          0 0 0 0 0 0
          0 0 0 0 0 0
          0 0 0 0 0 0
          0 0 0 0 0 0
          0 0 0 0 0 0
          0 0 0 0 0 0
          0 0 0 0 0 0
          0 0 0 0 0 0
          0 0 0 0 0 0
          0 0 0 0 0 0
          0 0 0 0 0 0
          0 0 0 0 0 0
          0 0 0 0 0 0
          0 0 0 0 0 0
          0 0 0 0 0 0
          0 0 0 0 0 0
          0 0 0 0 0 0
          0 0 0 0 0 0
          0 0 0 0 0 0
          0 0 0 0 0 0
          0 0 0 0 0 0
          0 0 0 0 0 0
          0 0 0 0 0 0
          0 0 0 0 0 0
          0 0 0 0 0 0
          0 0 0 0 0 0
          0 0 0 0 0 0
          0 0 0 0 0 0
          0 0 0 0 0 0
          0 0 0 0 0 0
          0 0 0 0 0 0
          0 0 0 0 0 0
          0 0 0 0 0 0
          0 0 0 0 0 0
          0 0 0 0 0 0
          0 0 0 0 0 0
          0 0 0 0 0 0
          0 0 0 0 0 0
          0 0 0 0 0 0
          0 0 0 0 0 0
          0 0 0 0 0 0
          0 0 0 0 0 0
          0 0 0 0 0 0
          0 0 0 0 0 0
          0 0 0 0 0 0
          0 0 0 0 0 0
          0 0 0 0 0 0
          0 0 0 0 0 0
          0 0 0 0 0 0
          0 0 0 0 0 0
          0 0 0 0 0 0
          0 0 0 0 0 0
          0 0 0 0 0 0
          0 0 0 0 0 0
          0 0 0 0 0 0
          0 0 0 0 0 0
          0 0 0 0 0 0
          0 0 0 0 0 0
          0 0 0 0 0 0
          0 0 0 0 0 0
          0 0 0 0 0 0
          0 0 0 0 0 0
          0 0 0 0 0 0
          0 0 0 0 0 0
          0 0 0 0 0 0
          0 0 0 0 0 0
          0 0 0 0 0 0
          0 0 0 0 0 0
          0 0 0 0 0 0
          0 0 0 0 0 0
          0 0 0 0 0 0
          0 0 0 0 0 0
          0 0 0 0 0 0
          0 0 0 0 0 0
          0 0 0 0 0 0
          0 0 0 0 0 0
          0 0 0 0 0 0
          0 0 0 0 0 0
          0 0 0 0 0 0
          0 0 0 0 0 0
          0 0 0 0 0 0
          0 0 0 0 0 0
          0 0 0 0 0 0
          0 0 0 0 0 0
          0 0 0 0 0 0
          0 0 0 0 0 0
          0 0 0 0 0 0
          0 0 0 0 0 0
          0 0 0 0 0 0
          0 0 0 0 0 0
          0 0 0 0 0 0
          0 0 0 0 0 0
          0 0 0 0 0 0
          0 0 0 0 0 0
          0 0 0 0 0 0
          0 0 0 0 0 0
          0 0 0 0 0 0
          0 0 0 0 0 0
          0 0 0 0 0 0
          0 0 0 0 0 0
          0 0 0 0 0 0
          0 0 0 0 0 0
          0 0 0 0 0 0
          0 0 0 0 0 0
          0 0 0 0 0 0
          0 0 0 0 0 0
          0 0 0 0 0 0
          0 0 0 0 0 0
          0 0 0 0 0 0
          0 0 0 0 0 0
          0 0 0 0 0 0
          0 0 0 0 0 0
          0 0 0 0 0 0
          0 0 0 0 0 0
          0 0 0 0 0 0
          0 0 0 0 0 0
          0 0 0 0 0 0
          0 0 0 0 0 0
          0 0 0 0 0 0
          0 0 0 0 0 0
          0 0 0 0 0 0
          0 0 0 0 0 0
          0 0 0 0 0 0
          0 0 0 0 0 0
          0 0 0 0 0 0
          0 0 0 0 0 0
          0 0 0 0 0 0
          0 0 0 0 0 0
          0 0 0 0 0 0
          0 0 0 0 0 0
          0 0 0 0 0 0
          0 0 0 0 0 0
          0 0 0 0 0 0
          0 0 0 0 0 0
          0 0 0 0 0 0
          0 0 0 0 0 0
          0 0 0 0 0 0
          0 0 0 0 0 0
          0 0 0 0 0 0
          0 0 0 0 0 0
          0 0 0 0 0 0
          0 0 0 0 0 0
          0 0 0 0 0 0
          0 0 0 0 0 0
          0 0 0 0 0 0
          0 0 0 0 0 0
          0 0 0 0 0 0
          0 0 0 0 0 0
          0 0 0 0 0 0
          0 0 0 0 0 0
          0 0 0 0 0 0
          0 0 0 0 0 0
          0 0 0 0 0 0
          0 0 0 0 0 0
          0 0 0 0 0 0
          0 0 0 0 0 0
          0 0 0 0 0 0
          0 0 0 0 0 0
          0 0 0 0 0 0
          0 0 0 0 0 0
          0 0 0 0 0 0
          0 0 0 0 0 0
          0 0 0 0 0 0
          0 0 0 0 0 0
          0 0 0 0 0 0
          0 0 0 0 0 0
          0 0 0 0 0 0
          0 0 0 0 0 0
          0 0 0 0 0 0
          0 0 0 0 0 0
          0 0 0 0 0 0
          0 0 0 0 0 0
          0 0 0 0 0 0
          0 0 0 0 0 0
          0 0 0 0 0 0
          0 0 0 0 0 0
          0 0 0 0 0 0
          0 0 0 0 0 0
          0 0 0 0 0 0
          0 0 0 0 0 0
          0 0 0 0 0 0
          0 0 0 0 0 0
          0 0 0 0 0 0
          0 0 0 0 0 0
          0 0 0 0 0 0
          0 0 0 0 0 0
          0 0 0 0 0 0
          0 0 0 0 0 0
          0 0 0 0 0 0
          0 0 0 0 0 0
          0 0 0 0 0 0
          0 0 0 0 0 0
          0 0 0 0 0 0
          0 0 0 0 0 0
          0 0 0 0 0 0
          0 0 0 0 0 0
          0 0 0 0 0 0
          0 0 0 0 0 0
          0 0 0 0 0 0
          0 0 0 0 0 0
          0 0 0 0 0 0
          0 0 0 0 0 0
          0 0 0 0 0 0
          0 0 0 0 0 0
          0 0 0 0 0 0
          0 0 0 0 0 0
          0 0 0 0 0 0
          0 0 0 0 0 0
          0 0 0 0 0 0
          0 0 0 0 0 0
          0 0 0 0 0 0
          0 0 0 0 0 0
          0 0 0 0 0 0
          0 0 0 0 0 0
          0 0 0 0 0 0
          0 0 0 0 0 0
          0 0 0 0 0 0
          0 0 0 0 0 0
          0 0 0 0 0 0
          0 0 0 0 0 0
          0 0 0 0 0 0
          0 0 0 0 0 0
          0 0 0 0 0 0
          0 0 0 0 0 0
          0 0 0 0 0 0
          0 0 0 0 0 0
          0 0 0 0 0 0
          0 0 0 0 0 0
          0 0 0 0 0 0
          0 0 0 0 0 0
          0 0 0 0 0 0
          0 0 0 0 0 0
          0 0 0 0 0 0
          0 0 0 0 0 0
          0 0 0 0 0 0
          0 0 0 0 0 0
          0 0 0 0 0 0
          0 0 0 0 0 0
          0 0 0 0 0 0
          0 0 0 0 0 0
          0 0 0 0 0 0
          0 0 0 0 0 0
          0 0 0 0 0 0
          0 0 0 0 0 0
          0 0 0 0 0 0
          0 0 0 0 0 0
          0 0 0 0 0 0
          0 0 0 0 0 0
          0 0 0 0 0 0
          0 0 0 0 0 0
          0 0 0 0 0 0
          0 0 0 0 0 0
          0 0 0 0 0 0
          0 0 0 0 0 0
          0 0 0 0 0 0
          0 0 0 0 0 0
          0 0 0 0 0 0
          0 0 0 0 0 0
          0 0 0 0 0 0
          0 0 0 0 0 0
          0 0 0 0 0 0
          0 0 0 0 0 0
          0 0 0 0 0 0
          0 0 0 0 0 0
          0 0 0 0 0 0
          0 0 0 0 0 0
          0 0 0 0 0 0
          0 0 0 0 0 0
          0 0 0 0 0 0
          0 0 0 0 0 0
          0 0 0 0 0 0
          0 0 0 0 0 0
          0 0 0 0 0 0
          0 0 0 0 0 0
          0 0 0 0 0 0
          0 0 0 0 0 0
          0 0 0 0 0 0
          0 0 0 0 0 0
          0 0 0 0 0 0
          0 0 0 0 0 0
          0 0 0 0 0 0
          0 0 0 0 0 0
          0 0 0 0 0 0
          0 0 0 0 0 0
          0 0 0 0 0 0
          0 0 0 0 0 0
          0 0 0 0 0 0
          0 0 0 0 0 0
          0 0 0 0 0 0
          0 0 0 0 0 0
          0 0 0 0 0 0
          0 0 0 0 0 0
          0 0 0 0 0 0
          0 0 0 0 0 0
          0 0 0 0 0 0
          0 0 0 0 0 0
          0 0 0 0 0 0
          0 0 0 0 0 0
          0 0 0 0 0 0
          0 0 0 0 0 0
          0 0 0 0 0 0
          0 0 0 0 0 0
          0 0 0 0 0 0
          0 0 0 0 0 0
          0 0 0 0 0 0
          0 0 0 0 0 0
          0 0 0 0 0 0
          0 0 0 0 0 0
          0 0 0 0 0 0
          0 0 0 0 0 0
          0 0 0 0 0 0
          0 0 0 0 0 0
          0 0 0 0 0 0
          0 0 0 0 0 0
          0 0 0 0 0 0
          0 0 0 0 0 0
          0 0 0 0 0 0
          0 0 0 0 0 0
          0 0 0 0 0 0
          0 0 0 0 0 0
          0 0 0 0 0 0
          0 0 0 0 0 0
          0 0 0 0 0 0
          0 0 0 0 0 0
          0 0 0 0 0 0
          0 0 0 0 0 0
          0 0 0 0 0 0
          0 0 0 0 0 0
          0 0 0 0 0 0
          0 0 0 0 0 0
          0 0 0 0 0 0
          0 0 0 0 0 0
          0 0 0 0 0 0
          0 0 0 0 0 0
          0 0 0 0 0 0
          0 0 0 0 0 0
          0 0 0 0 0 0
          0 0 0 0 0 0
          0 0 0 0 0 0
          0 0 0 0 0 0
          0 0 0 0 0 0
          0 0 0 0 0 0
          0 0 0 0 0 0
          0 0 0 0 0 0
          0 0 0 0 0 0
          0 0 0 0 0 0
          0 0 0 0 0 0
          0 0 0 0 0 0
          0 0 0 0 0 0
          0 0 0 0 0 0
          0 0 0 0 0 0
          0 0 0 0 0 0
          0 0 0 0 0 0
          0 0 0 0 0 0
          0 0 0 0 0 0
          0 0 0 0 0 0
          0 0 0 0 0 0
          0 0 0 0 0 0
          0 0 0 0 0 0
          0 0 0 0 0 0
          0 0 0 0 0 0
          0 0 0 0 0 0
          0 0 0 0 0 0
          0 0 0 0 0 0
          0 0 0 0 0 0
          0 0 0 0 0 0
          0 0 0 0 0 0
          0 0 0 0 0 0
          0 0 0 0 0 0
          0 0 0 0 0 0
          0 0 0 0 0 0
          0 0 0 0 0 0
          0 0 0 0 0 0
          0 0 0 0 0 0
          0 0 0 0 0 0
          0 0 0 0 0 0
          0 0 0 0 0 0
          0 0 0 0 0 0
          0 0 0 0 0 0
          0 0 0 0 0 0
          0 0 0 0 0 0
          0 0 0 0 0 0
          0 0 0 0 0 0
          0 0 0 0 0 0
          0 0 0 0 0 0
          0 0 0 0 0 0
          0 0 0 0 0 0
          0 0 0 0 0 0
          0 0 0 0 0 0
          0 0 0 0 0 0
          0 0 0 0 0 0
          0 0 0 0 0 0
          0 0 0 0 0 0
          0 0 0 0 0 0
          0 0 0 0 0 0
          0 0 0 0 0 0
          0 0 0 0 0 0
          0 0 0 0 0 0
          0 0 0 0 0 0
          0 0 0 0 0 0
          0 0 0 0 0 0
          0 0 0 0 0 0
          0 0 0 0 0 0
          0 0 0 0 0 0
          0 0 0 0 0 0
          0 0 0 0 0 0
          0 0 0 0 0 0
          0 0 0 0 0 0
          0 0 0 0 0 0
          0 0 0 0 0 0
          0 0 0 0 0 0
          0 0 0 0 0 0
          0 0 0 0 0 0
          0 0 0 0 0 0
          0 0 0 0 0 0
          0 0 0 0 0 0
          0 0 0 0 0 0
          0 0 0 0 0 0
          0 0 0 0 0 0
          0 0 0 0 0 0
          0 0 0 0 0 0
          0 0 0 0 0 0
          0 0 0 0 0 0
          0 0 0 0 0 0
          0 0 0 0 0 0
          0 0 0 0 0 0
          0 0 0 0 0 0
          0 0 0 0 0 0
          0 0 0 0 0 0
          0 0 0 0 0 0
          0 0 0 0 0 0
          0 0 0 0 0 0
          0 0 0 0 0 0
          0 0 0 0 0 0
          0 0 0 0 0 0
          0 0 0 0 0 0
          0 0 0 0 0 0
          0 0 0 0 0 0
          0 0 0 0 0 0
          0 0 0 0 0 0
          0 0 0 0 0 0
          0 0 0 0 0 0
          0 0 0 0 0 0
          0 0 0 0 0 0
          0 0 0 0 0 0
          0 0 0 0 0 0
          0 0 0 0 0 0
          0 0 0 0 0 0
          0 0 0 0 0 0
          0 0 0 0 0 0
          0 0 0 0 0 0
          0 0 0 0 0 0
          0 0 0 0 0 0
          0 0 0 0 0 0
          0 0 0 0 0 0
          0 0 0 0 0 0
          0 0 0 0 0 0
          0 0 0 0 0 0
          0 0 0 0 0 0
          0 0 0 0 0 0
          0 0 0 0 0 0
          0 0 0 0 0 0
          0 0 0 0 0 0
          0 0 0 0 0 0
          0 0 0 0 0 0
          0 0 0 0 0 0
          0 0 0 0 0 0
          0 0 0 0 0 0
          0 0 0 0 0 0
          0 0 0 0 0 0
          0 0 0 0 0 0
          0 0 0 0 0 0
          0 0 0 0 0 0
          0 0 0 0 0 0
          0 0 0 0 0 0
          0 0 0 0 0 0
          0 0 0 0 0 0
          0 0 0 0 0 0
          0 0 0 0 0 0
          0 0 0 0 0 0
          0 0 0 0 0 0
          0 0 0 0 0 0
          0 0 0 0 0 0
          0 0 0 0 0 0
          0 0 0 0 0 0
          0 0 0 0 0 0
          0 0 0 0 0 0
          0 0 0 0 0 0
          0 0 0 0 0 0
          0 0 0 0 0 0
          0 0 0 0 0 0
          0 0 0 0 0 0
          0 0 0 0 0 0
          0 0 0 0 0 0
          0 0 0 0 0 0
          0 0 0 0 0 0
          0 0 0 0 0 0
          0 0 0 0 0 0
          0 0 0 0 0 0
          0 0 0 0 0 0
          0 0 0 0 0 0
          0 0 0 0 0 0
          0 0 0 0 0 0
          0 0 0 0 0 0
          0 0 0 0 0 0
          0 0 0 0 0 0
          0 0 0 0 0 0
          0 0 0 0 0 0
          0 0 0 0 0 0
          0 0 0 0 0 0
          0 0 0 0 0 0
          0 0 0 0 0 0
          0 0 0 0 0 0
          0 0 0 0 0 0
          0 0 0 0 0 0
          0 0 0 0 0 0
          0 0 0 0 0 0
          0 0 0 0 0 0
          0 0 0 0 0 0
          0 0 0 0 0 0
          0 0 0 0 0 0
          0 0 0 0 0 0
          0 0 0 0 0 0
          0 0 0 0 0 0
          0 0 0 0 0 0
          0 0 0 0 0 0
          0 0 0 0 0 0
          0 0 0 0 0 0
          0 0 0 0 0 0
          0 0 0 0 0 0
          0 0 0 0 0 0
          0 0 0 0 0 0
          0 0 0 0 0 0
          0 0 0 0 0 0
          0 0 0 0 0 0
          0 0 0 0 0 0
          0 0 0 0 0 0
          0 0 0 0 0 0
          0 0 0 0 0 0
          0 0 0 0 0 0
          0 0 0 0 0 0
          0 0 0 0 0 0
          0 0 0 0 0 0
          0 0 0 0 0 0
          0 0 0 0 0 0
          0 0 0 0 0 0
          0 0 0 0 0 0
          0 0 0 0 0 0
          0 0 0 0 0 0
          0 0 0 0 0 0
          0 0 0 0 0 0
          0 0 0 0 0 0
          0 0 0 0 0 0
          0 0 0 0 0 0
          0 0 0 0 0 0
          0 0 0 0 0 0
          0 0 0 0 0 0
          0 0 0 0 0 0
          0 0 0 0 0 0
          0 0 0 0 0 0
          0 0 0 0 0 0
          0 0 0 0 0 0
          0 0 0 0 0 0
          0 0 0 0 0 0
          0 0 0 0 0 0
          0 0 0 0 0 0
          0 0 0 0 0 0
          0 0 0 0 0 0
          0 0 0 0 0 0
          0 0 0 0 0 0
          0 0 0 0 0 0
          0 0 0 0 0 0
          0 0 0 0 0 0
          0 0 0 0 0 0
          0 0 0 0 0 0
          0 0 0 0 0 0
          0 0 0 0 0 0
          0 0 0 0 0 0
          0 0 0 0 0 0
          0 0 0 0 0 0
          0 0 0 0 0 0
          0 0 0 0 0 0
          0 0 0 0 0 0
          0 0 0 0 0 0
          0 0 0 0 0 0
          0 0 0 0 0 0
          0 0 0 0 0 0
          0 0 0 0 0 0
          0 0 0 0 0 0
          0 0 0 0 0 0
          0 0 0 0 0 0
          0 0 0 0 0 0
          0 0 0 0 0 0
          0 0 0 0 0 0
          0 0 0 0 0 0
          0 0 0 0 0 0
          0 0 0 0 0 0
          0 0 0 0 0 0
          0 0 0 0 0 0
          0 0 0 0 0 0
          0 0 0 0 0 0
          0 0 0 0 0 0
          0 0 0 0 0 0
          0 0 0 0 0 0
          0 0 0 0 0 0
          0 0 0 0 0 0
          0 0 0 0 0 0
          0 0 0 0 0 0
          0 0 0 0 0 0
          0 0 0 0 0 0
          0 0 0 0 0 0
          0 0 0 0 0 0
          0 0 0 0 0 0
          0 0 0 0 0 0
          0 0 0 0 0 0
          0 0 0 0 0 0
          0 0 0 0 0 0
          0 0 0 0 0 0
          0 0 0 0 0 0
          0 0 0 0 0 0
          0 0 0 0 0 0
          0 0 0 0 0 0
          0 0 0 0 0 0
          0 0 0 0 0 0
          0 0 0 0 0 0
          0 0 0 0 0 0
          0 0 0 0 0 0
          0 0 0 0 0 0
          0 0 0 0 0 0
          0 0 0 0 0 0
          0 0 0 0 0 0
          0 0 0 0 0 0
          0 0 0 0 0 0
          0 0 0 0 0 0
          0 0 0 0 0 0
          0 0 0 0 0 0
          0 0 0 0 0 0
          0 0 0 0 0 0
          0 0 0 0 0 0
          0 0 0 0 0 0
          0 0 0 0 0 0
          0 0 0 0 0 0
          0 0 0 0 0 0
          0 0 0 0 0 0
          0 0 0 0 0 0
          0 0 0 0 0 0
          0 0 0 0 0 0
          0 0 0 0 0 0
          0 0 0 0 0 0
          0 0 0 0 0 0
          0 0 0 0 0 0
          0 0 0 0 0 0
          0 0 0 0 0 0
          0 0 0 0 0 0
          0 0 0 0 0 0
          0 0 0 0 0 0
          0 0 0 0 0 0
          0 0 0 0 0 0
          0 0 0 0 0 0
          0 0 0 0 0 0
          0 0 0 0 0 0
          0 0 0 0 0 0
          0 0 0 0 0 0
          0 0 0 0 0 0
          0 0 0 0 0 0
          0 0 0 0 0 0
          0 0 0 0 0 0
          0 0 0 0 0 0
          0 0 0 0 0 0
          0 0 0 0 0 0
          0 0 0 0 0 0
          0 0 0 0 0 0
          0 0 0 0 0 0
          0 0 0 0 0 0
          0 0 0 0 0 0
          0 0 0 0 0 0
          0 0 0 0 0 0
          0 0 0 0 0 0
          0 0 0 0 0 0
          0 0 0 0 0 0
          0 0 0 0 0 0
          0 0 0 0 0 0
          0 0 0 0 0 0
          0 0 0 0 0 0
          0 0 0 0 0 0
          0 0 0 0 0 0
          0 0 0 0 0 0
          0 0 0 0 0 0
          0 0 0 0 0 0
          0 0 0 0 0 0
          0 0 0 0 0 0
          0 0 0 0 0 0
          0 0 0 0 0 0
          0 0 0 0 0 0
          0 0 0 0 0 0
          0 0 0 0 0 0
          0 0 0 0 0 0
          0 0 0 0 0 0
          0 0 0 0 0 0
          0 0 0 0 0 0
          0 0 0 0 0 0
          0 0 0 0 0 0
          0 0 0 0 0 0
          0 0 0 0 0 0
          0 0 0 0 0 0
          0 0 0 0 0 0
          0 0 0 0 0 0
          0 0 0 0 0 0
          0 0 0 0 0 0
          0 0 0 0 0 0
          0 0 0 0 0 0
          0 0 0 0 0 0
          0 0 0 0 0 0
          0 0 0 0 0 0
          0 0 0 0 0 0
          0 0 0 0 0 0
          0 0 0 0 0 0
          0 0 0 0 0 0
          0 0 0 0 0 0
          0 0 0 0 0 0
          0 0 0 0 0 0
          0 0 0 0 0 0
          0 0 0 0 0 0
          0 0 0 0 0 0
          0 0 0 0 0 0
          0 0 0 0 0 0
          0 0 0 0 0 0
          0 0 0 0 0 0
          0 0 0 0 0 0
          0 0 0 0 0 0
          0 0 0 0 0 0
          0 0 0 0 0 0
          0 0 0 0 0 0
          0 0 0 0 0 0
          0 0 0 0 0 0
          0 0 0 0 0 0
          0 0 0 0 0 0
          0 0 0 0 0 0
          0 0 0 0 0 0
          0 0 0 0 0 0
          0 0 0 0 0 0
          0 0 0 0 0 0
          0 0 0 0 0 0
          0 0 0 0 0 0
          0 0 0 0 0 0
          0 0 0 0 0 0
          0 0 0 0 0 0
          0 0 0 0 0 0
          0 0 0 0 0 0
          0 0 0 0 0 0
          0 0 0 0 0 0
          0 0 0 0 0 0
          0 0 0 0 0 0
          0 0 0 0 0 0
          0 0 0 0 0 0
          0 0 0 0 0 0
          0 0 0 0 0 0
          0 0 0 0 0 0
          0 0 0 0 0 0
          0 0 0 0 0 0
          0 0 0 0 0 0
          0 0 0 0 0 0
          0 0 0 0 0 0
          0 0 0 0 0 0
          0 0 0 0 0 0
          0 0 0 0 0 0
          0 0 0 0 0 0
          0 0 0 0 0 0
          0 0 0 0 0 0
          0 0 0 0 0 0
          0 0 0 0 0 0
          0 0 0 0 0 0
          0 0 0 0 0 0
          0 0 0 0 0 0
          0 0 0 0 0 0
          0 0 0 0 0 0
          0 0 0 0 0 0
          0 0 0 0 0 0
          0 0 0 0 0 0
          0 0 0 0 0 0
          0 0 0 0 0 0
          0 0 0 0 0 0
          0 0 0 0 0 0
          0 0 0 0 0 0
          0 0 0 0 0 0
          0 0 0 0 0 0
          0 0 0 0 0 0
          0 0 0 0 0 0
          0 0 0 0 0 0
          0 0 0 0 0 0
          0 0 0 0 0 0
          0 0 0 0 0 0
          0 0 0 0 0 0
          0 0 0 0 0 0
          0 0 0 0 0 0
          0 0 0 0 0 0
          0 0 0 0 0 0
          0 0 0 0 0 0
          0 0 0 0 0 0
          0 0 0 0 0 0
          0 0 0 0 0 0
          0 0 0 0 0 0
          0 0 0 0 0 0
          0 0 0 0 0 0
          0 0 0 0 0 0
          0 0 0 0 0 0
          0 0 0 0 0 0
          0 0 0 0 0 0
          0 0 0 0 0 0
          0 0 0 0 0 0
          0 0 0 0 0 0
          0 0 0 0 0 0
          0 0 0 0 0 0
          0 0 0 0 0 0
          0 0 0 0 0 0
          0 0 0 0 0 0
          0 0 0 0 0 0
          0 0 0 0 0 0
          0 0 0 0 0 0
          0 0 0 0 0 0
          0 0 0 0 0 0
          0 0 0 0 0 0
          0 0 0 0 0 0
          0 0 0 0 0 0
          0 0 0 0 0 0
          0 0 0 0 0 0
          0 0 0 0 0 0
          0 0 0 0 0 0
          0 0 0 0 0 0
          0 0 0 0 0 0
          0 0 0 0 0 0
          0 0 0 0 0 0
          0 0 0 0 0 0
          0 0 0 0 0 0
          0 0 0 0 0 0
          0 0 0 0 0 0
          0 0 0 0 0 0
          0 0 0 0 0 0
          0 0 0 0 0 0
          0 0 0 0 0 0
          0 0 0 0 0 0
          0 0 0 0 0 0
          0 0 0 0 0 0
          0 0 0 0 0 0
          0 0 0 0 0 0
          0 0 0 0 0 0
          0 0 0 0 0 0
          0 0 0 0 0 0
          0 0 0 0 0 0
          0 0 0 0 0 0
          0 0 0 0 0 0
          0 0 0 0 0 0
          0 0 0 0 0 0
          0 0 0 0 0 0
          0 0 0 0 0 0
          0 0 0 0 0 0
          0 0 0 0 0 0
          0 0 0 0 0 0
          0 0 0 0 0 0
          0 0 0 0 0 0
          0 0 0 0 0 0
          0 0 0 0 0 0
          0 0 0 0 0 0
          0 0 0 0 0 0
          0 0 0 0 0 0
          0 0 0 0 0 0
          0 0 0 0 0 0
          0 0 0 0 0 0
          0 0 0 0 0 0
          0 0 0 0 0 0
          0 0 0 0 0 0
          0 0 0 0 0 0
          0 0 0 0 0 0
          0 0 0 0 0 0
          0 0 0 0 0 0
          0 0 0 0 0 0
          0 0 0 0 0 0
          0 0 0 0 0 0
          0 0 0 0 0 0
          0 0 0 0 0 0
          0 0 0 0 0 0
          0 0 0 0 0 0
          0 0 0 0 0 0
          0 0 0 0 0 0
          0 0 0 0 0 0
          0 0 0 0 0 0
          0 0 0 0 0 0
          0 0 0 0 0 0
          0 0 0 0 0 0
          0 0 0 0 0 0
          0 0 0 0 0 0
          0 0 0 0 0 0
          0 0 0 0 0 0
          0 0 0 0 0 0
          0 0 0 0 0 0
          0 0 0 0 0 0
          0 0 0 0 0 0
          0 0 0 0 0 0
          0 0 0 0 0 0
          0 0 0 0 0 0
          0 0 0 0 0 0
          0 0 0 0 0 0
          0 0 0 0 0 0
          0 0 0 0 0 0
          0 0 0 0 0 0
          0 0 0 0 0 0
          0 0 0 0 0 0
          0 0 0 0 0 0
          0 0 0 0 0 0
          0 0 0 0 0 0
          0 0 0 0 0 0
          0 0 0 0 0 0
          0 0 0 0 0 0
          0 0 0 0 0 0
          0 0 0 0 0 0
          0 0 0 0 0 0
          0 0 0 0 0 0
          0 0 0 0 0 0
          0 0 0 0 0 0
          0 0 0 0 0 0
          0 0 0 0 0 0
          0 0 0 0 0 0
          0 0 0 0 0 0
          0 0 0 0 0 0
          0 0 0 0 0 0
          0 0 0 0 0 0
          0 0 0 0 0 0
          0 0 0 0 0 0
          0 0 0 0 0 0
          0 0 0 0 0 0
          0 0 0 0 0 0
          0 0 0 0 0 0
          0 0 0 0 0 0
          0 0 0 0 0 0
          0 0 0 0 0 0
          0 0 0 0 0 0
          0 0 0 0 0 0
          0 0 0 0 0 0
          0 0 0 0 0 0
          0 0 0 0 0 0
          0 0 0 0 0 0
          0 0 0 0 0 0
          0 0 0 0 0 0
          0 0 0 0 0 0
          0 0 0 0 0 0
          0 0 0 0 0 0
          0 0 0 0 0 0
          0 0 0 0 0 0
          0 0 0 0 0 0
          0 0 0 0 0 0
          0 0 0 0 0 0
          0 0 0 0 0 0
          0 0 0 0 0 0
          0 0 0 0 0 0
          0 0 0 0 0 0
          0 0 0 0 0 0
          0 0 0 0 0 0
          0 0 0 0 0 0
          0 0 0 0 0 0
          0 0 0 0 0 0
          0 0 0 0 0 0
          0 0 0 0 0 0
          0 0 0 0 0 0
          0 0 0 0 0 0
          0 0 0 0 0 0
          0 0 0 0 0 0
          0 0 0 0 0 0
          0 0 0 0 0 0
          0 0 0 0 0 0
          0 0 0 0 0 0
          0 0 0 0 0 0
          0 0 0 0 0 0
          0 0 0 0 0 0
          0 0 0 0 0 0
          0 0 0 0 0 0
          0 0 0 0 0 0
          0 0 0 0 0 0
          0 0 0 0 0 0
          0 0 0 0 0 0
          0 0 0 0 0 0
          0 0 0 0 0 0
          0 0 0 0 0 0
          0 0 0 0 0 0
          0 0 0 0 0 0
          0 0 0 0 0 0
          0 0 0 0 0 0
          0 0 0 0 0 0
          0 0 0 0 0 0
          0 0 0 0 0 0
          0 0 0 0 0 0
          0 0 0 0 0 0
          0 0 0 0 0 0
          0 0 0 0 0 0
          0 0 0 0 0 0
          0 0 0 0 0 0
          0 0 0 0 0 0
          0 0 0 0 0 0
          0 0 0 0 0 0
          0 0 0 0 0 0
          0 0 0 0 0 0
          0 0 0 0 0 0
          0 0 0 0 0 0
          0 0 0 0 0 0
          0 0 0 0 0 0
          0 0 0 0 0 0
          0 0 0 0 0 0
          0 0 0 0 0 0
          0 0 0 0 0 0
          0 0 0 0 0 0
          0 0 0 0 0 0
          0 0 0 0 0 0
          0 0 0 0 0 0
          0 0 0 0 0 0
          0 0 0 0 0 0
          0 0 0 0 0 0
          0 0 0 0 0 0
          0 0 0 0 0 0
          0 0 0 0 0 0
          0 0 0 0 0 0
          0 0 0 0 0 0
          0 0 0 0 0 0
          0 0 0 0 0 0
          0 0 0 0 0 0
          0 0 0 0 0 0
          0 0 0 0 0 0
          0 0 0 0 0 0
          0 0 0 0 0 0
          0 0 0 0 0 0
          0 0 0 0 0 0
          0 0 0 0 0 0
          0 0 0 0 0 0
          0 0 0 0 0 0
          0 0 0 0 0 0
          0 0 0 0 0 0
          0 0 0 0 0 0
          0 0 0 0 0 0
          0 0 0 0 0 0
          0 0 0 0 0 0
          0 0 0 0 0 0
          0 0 0 0 0 0
          0 0 0 0 0 0
          0 0 0 0 0 0
          0 0 0 0 0 0
          0 0 0 0 0 0
          0 0 0 0 0 0
          0 0 0 0 0 0
          0 0 0 0 0 0
          0 0 0 0 0 0
          0 0 0 0 0 0
          0 0 0 0 0 0
          0 0 0 0 0 0
          0 0 0 0 0 0
          0 0 0 0 0 0
          0 0 0 0 0 0
          0 0 0 0 0 0
          0 0 0 0 0 0
          0 0 0 0 0 0
          0 0 0 0 0 0
          0 0 0 0 0 0
          0 0 0 0 0 0
          0 0 0 0 0 0
          0 0 0 0 0 0
          0 0 0 0 0 0
          0 0 0 0 0 0
          0 0 0 0 0 0
          0 0 0 0 0 0
          0 0 0 0 0 0
          0 0 0 0 0 0
          0 0 0 0 0 0
          0 0 0 0 0 0
          0 0 0 0 0 0
          0 0 0 0 0 0
          0 0 0 0 0 0
          0 0 0 0 0 0
          0 0 0 0 0 0
          0 0 0 0 0 0
          0 0 0 0 0 0
          0 0 0 0 0 0
          0 0 0 0 0 0
          0 0 0 0 0 0
          0 0 0 0 0 0
          0 0 0 0 0 0
          0 0 0 0 0 0
          0 0 0 0 0 0
          0 0 0 0 0 0
          0 0 0 0 0 0
          0 0 0 0 0 0
          0 0 0 0 0 0
          0 0 0 0 0 0
          0 0 0 0 0 0
          0 0 0 0 0 0
          0 0 0 0 0 0
          0 0 0 0 0 0
          0 0 0 0 0 0
          0 0 0 0 0 0
          0 0 0 0 0 0
          0 0 0 0 0 0
          0 0 0 0 0 0
          0 0 0 0 0 0
          0 0 0 0 0 0
          0 0 0 0 0 0
          0 0 0 0 0 0
          0 0 0 0 0 0
          0 0 0 0 0 0
          0 0 0 0 0 0
          0 0 0 0 0 0
          0 0 0 0 0 0
          0 0 0 0 0 0
          0 0 0 0 0 0
          0 0 0 0 0 0
          0 0 0 0 0 0
          0 0 0 0 0 0
          0 0 0 0 0 0
          0 0 0 0 0 0
          0 0 0 0 0 0
          0 0 0 0 0 0
          0 0 0 0 0 0
          0 0 0 0 0 0
          0 0 0 0 0 0
          0 0 0 0 0 0
          0 0 0 0 0 0
          0 0 0 0 0 0
          0 0 0 0 0 0
          0 0 0 0 0 0
          0 0 0 0 0 0
          0 0 0 0 0 0
          0 0 0 0 0 0
          0 0 0 0 0 0
          0 0 0 0 0 0
          0 0 0 0 0 0
          0 0 0 0 0 0
          0 0 0 0 0 0
          0 0 0 0 0 0
          0 0 0 0 0 0
          0 0 0 0 0 0
          0 0 0 0 0 0
          0 0 0 0 0 0
          0 0 0 0 0 0
          0 0 0 0 0 0
          0 0 0 0 0 0
          0 0 0 0 0 0
          0 0 0 0 0 0
          0 0 0 0 0 0
          0 0 0 0 0 0
          0 0 0 0 0 0
          0 0 0 0 0 0
          0 0 0 0 0 0
          0 0 0 0 0 0
          0 0 0 0 0 0
          0 0 0 0 0 0
          0 0 0 0 0 0
          0 0 0 0 0 0
          0 0 0 0 0 0
          0 0 0 0 0 0
          0 0 0 0 0 0
          0 0 0 0 0 0
          0 0 0 0 0 0
          0 0 0 0 0 0
          0 0 0 0 0 0
          0 0 0 0 0 0
          0 0 0 0 0 0
          0 0 0 0 0 0
          0 0 0 0 0 0
          0 0 0 0 0 0
          0 0 0 0 0 0
          0 0 0 0 0 0
          0 0 0 0 0 0
          0 0 0 0 0 0
          0 0 0 0 0 0
          0 0 0 0 0 0
          0 0 0 0 0 0
          0 0 0 0 0 0
          0 0 0 0 0 0
          0 0 0 0 0 0
          0 0 0 0 0 0
          0 0 0 0 0 0
          0 0 0 0 0 0
          0 0 0 0 0 0
          0 0 0 0 0 0
          0 0 0 0 0 0
          0 0 0 0 0 0
          0 0 0 0 0 0
          0 0 0 0 0 0
          0 0 0 0 0 0
          0 0 0 0 0 0
          0 0 0 0 0 0
          0 0 0 0 0 0
          0 0 0 0 0 0
          0 0 0 0 0 0
          0 0 0 0 0 0
          0 0 0 0 0 0
          0 0 0 0 0 0
          0 0 0 0 0 0
          0 0 0 0 0 0
          0 0 0 0 0 0
          0 0 0 0 0 0
          0 0 0 0 0 0
          0 0 0 0 0 0
          0 0 0 0 0 0
          0 0 0 0 0 0
          0 0 0 0 0 0
          0 0 0 0 0 0
          0 0 0 0 0 0
          0 0 0 0 0 0
          0 0 0 0 0 0
          0 0 0 0 0 0
          0 0 0 0 0 0
          0 0 0 0 0 0
          0 0 0 0 0 0
          0 0 0 0 0 0
          0 0 0 0 0 0
          0 0 0 0 0 0
          0 0 0 0 0 0
          0 0 0 0 0 0
          0 0 0 0 0 0
          0 0 0 0 0 0
          0 0 0 0 0 0
          0 0 0 0 0 0
          0 0 0 0 0 0
          0 0 0 0 0 0
          0 0 0 0 0 0
          0 0 0 0 0 0
          0 0 0 0 0 0
          0 0 0 0 0 0
          0 0 0 0 0 0
          0 0 0 0 0 0
          0 0 0 0 0 0
          0 0 0 0 0 0
          0 0 0 0 0 0
          0 0 0 0 0 0
          0 0 0 0 0 0
          0 0 0 0 0 0
          0 0 0 0 0 0
          0 0 0 0 0 0
          0 0 0 0 0 0
          0 0 0 0 0 0
          0 0 0 0 0 0
          0 0 0 0 0 0
          0 0 0 0 0 0
          0 0 0 0 0 0
          0 0 0 0 0 0
          0 0 0 0 0 0
          0 0 0 0 0 0
          0 0 0 0 0 0
          0 0 0 0 0 0
          0 0 0 0 0 0
          0 0 0 0 0 0
          0 0 0 0 0 0
          0 0 0 0 0 0
          0 0 0 0 0 0
          0 0 0 0 0 0
          0 0 0 0 0 0
          0 0 0 0 0 0
          0 0 0 0 0 0
          0 0 0 0 0 0
          0 0 0 0 0 0
          0 0 0 0 0 0
          0 0 0 0 0 0
          0 0 0 0 0 0
          0 0 0 0 0 0
          0 0 0 0 0 0
          0 0 0 0 0 0
          0 0 0 0 0 0
          0 0 0 0 0 0
          0 0 0 0 0 0
          0 0 0 0 0 0
          0 0 0 0 0 0
          0 0 0 0 0 0
          0 0 0 0 0 0
          0 0 0 0 0 0
          0 0 0 0 0 0
          0 0 0 0 0 0
          0 0 0 0 0 0
          0 0 0 0 0 0
          0 0 0 0 0 0
          0 0 0 0 0 0
          0 0 0 0 0 0
          0 0 0 0 0 0
          0 0 0 0 0 0
          0 0 0 0 0 0
          0 0 0 0 0 0
          0 0 0 0 0 0
          0 0 0 0 0 0
          0 0 0 0 0 0
          0 0 0 0 0 0
          0 0 0 0 0 0
          0 0 0 0 0 0
          0 0 0 0 0 0
          0 0 0 0 0 0
          0 0 0 0 0 0
          0 0 0 0 0 0
          0 0 0 0 0 0
          0 0 0 0 0 0
          0 0 0 0 0 0
          0 0 0 0 0 0
          0 0 0 0 0 0
          0 0 0 0 0 0
          0 0 0 0 0 0
          0 0 0 0 0 0
          0 0 0 0 0 0
          0 0 0 0 0 0
          0 0 0 0 0 0
          0 0 0 0 0 0
          0 0 0 0 0 0
          0 0 0 0 0 0
          0 0 0 0 0 0
          0 0 0 0 0 0
          0 0 0 0 0 0
          0 0 0 0 0 0
          0 0 0 0 0 0
          0 0 0 0 0 0
          0 0 0 0 0 0
          0 0 0 0 0 0
          0 0 0 0 0 0
          0 0 0 0 0 0
          0 0 0 0 0 0
          0 0 0 0 0 0
          0 0 0 0 0 0
          0 0 0 0 0 0
          0 0 0 0 0 0
          0 0 0 0 0 0
          0 0 0 0 0 0
          0 0 0 0 0 0
          0 0 0 0 0 0
          0 0 0 0 0 0
          0 0 0 0 0 0
          0 0 0 0 0 0
          0 0 0 0 0 0
          0 0 0 0 0 0
          0 0 0 0 0 0
          0 0 0 0 0 0
          0 0 0 0 0 0
          0 0 0 0 0 0
          0 0 0 0 0 0
          0 0 0 0 0 0
          0 0 0 0 0 0
          0 0 0 0 0 0
          0 0 0 0 0 0
          0 0 0 0 0 0
          0 0 0 0 0 0
          0 0 0 0 0 0
          0 0 0 0 0 0
          0 0 0 0 0 0
          0 0 0 0 0 0
          0 0 0 0 0 0
          0 0 0 0 0 0
          0 0 0 0 0 0
          0 0 0 0 0 0
          0 0 0 0 0 0
          0 0 0 0 0 0
          0 0 0 0 0 0
          0 0 0 0 0 0
          0 0 0 0 0 0
          0 0 0 0 0 0
          0 0 0 0 0 0
          0 0 0 0 0 0
          0 0 0 0 0 0
          0 0 0 0 0 0
          0 0 0 0 0 0
          0 0 0 0 0 0
          0 0 0 0 0 0
          0 0 0 0 0 0
          0 0 0 0 0 0
          0 0 0 0 0 0
          0 0 0 0 0 0
          0 0 0 0 0 0
          0 0 0 0 0 0
          0 0 0 0 0 0
          0 0 0 0 0 0
          0 0 0 0 0 0
          0 0 0 0 0 0
          0 0 0 0 0 0
          0 0 0 0 0 0
          0 0 0 0 0 0
          0 0 0 0 0 0
          0 0 0 0 0 0
          0 0 0 0 0 0
          0 0 0 0 0 0
          0 0 0 0 0 0
          0 0 0 0 0 0
          0 0 0 0 0 0
          0 0 0 0 0 0
          0 0 0 0 0 0
          0 0 0 0 0 0
          0 0 0 0 0 0
          0 0 0 0 0 0
          0 0 0 0 0 0
          0 0 0 0 0 0
          0 0 0 0 0 0
          0 0 0 0 0 0
          0 0 0 0 0 0
          0 0 0 0 0 0
          0 0 0 0 0 0
          0 0 0 0 0 0
          0 0 0 0 0 0
          0 0 0 0 0 0
          0 0 0 0 0 0
          0 0 0 0 0 0
          0 0 0 0 0 0
          0 0 0 0 0 0
          0 0 0 0 0 0
          0 0 0 0 0 0
          0 0 0 0 0 0
          0 0 0 0 0 0
          0 0 0 0 0 0
          0 0 0 0 0 0
          0 0 0 0 0 0
          0 0 0 0 0 0
          0 0 0 0 0 0
          0 0 0 0 0 0
          0 0 0 0 0 0
          0 0 0 0 0 0
          0 0 0 0 0 0
          0 0 0 0 0 0
          0 0 0 0 0 0
          0 0 0 0 0 0
          0 0 0 0 0 0
          0 0 0 0 0 0
          0 0 0 0 0 0
          0 0 0 0 0 0
          0 0 0 0 0 0
          0 0 0 0 0 0
          0 0 0 0 0 0
          0 0 0 0 0 0
          0 0 0 0 0 0
          0 0 0 0 0 0
          0 0 0 0 0 0
          0 0 0 0 0 0
          0 0 0 0 0 0
          0 0 0 0 0 0
          0 0 0 0 0 0
          0 0 0 0 0 0
          0 0 0 0 0 0
          0 0 0 0 0 0
          0 0 0 0 0 0
          0 0 0 0 0 0
          0 0 0 0 0 0
          0 0 0 0 0 0
          0 0 0 0 0 0
          0 0 0 0 0 0
          0 0 0 0 0 0
          0 0 0 0 0 0
          0 0 0 0 0 0
          0 0 0 0 0 0
          0 0 0 0 0 0
          0 0 0 0 0 0
          0 0 0 0 0 0
          0 0 0 0 0 0
          0 0 0 0 0 0
          0 0 0 0 0 0
          0 0 0 0 0 0
          0 0 0 0 0 0
          0 0 0 0 0 0
          0 0 0 0 0 0
          0 0 0 0 0 0
          0 0 0 0 0 0
          0 0 0 0 0 0
          0 0 0 0 0 0
          0 0 0 0 0 0
          0 0 0 0 0 0
          0 0 0 0 0 0
          0 0 0 0 0 0
          0 0 0 0 0 0
          0 0 0 0 0 0
          0 0 0 0 0 0
          0 0 0 0 0 0
          0 0 0 0 0 0
          0 0 0 0 0 0
          0 0 0 0 0 0
          0 0 0 0 0 0
          0 0 0 0 0 0
          0 0 0 0 0 0
          0 0 0 0 0 0
          0 0 0 0 0 0
          0 0 0 0 0 0
          0 0 0 0 0 0
          0 0 0 0 0 0
          0 0 0 0 0 0
          0 0 0 0 0 0
          0 0 0 0 0 0
          0 0 0 0 0 0
          0 0 0 0 0 0
          0 0 0 0 0 0
          0 0 0 0 0 0
          0 0 0 0 0 0
          0 0 0 0 0 0
          0 0 0 0 0 0
          0 0 0 0 0 0
          0 0 0 0 0 0
          0 0 0 0 0 0
          0 0 0 0 0 0
          0 0 0 0 0 0
          0 0 0 0 0 0
          0 0 0 0 0 0
          0 0 0 0 0 0
          0 0 0 0 0 0
          0 0 0 0 0 0
          0 0 0 0 0 0
          0 0 0 0 0 0
          0 0 0 0 0 0
          0 0 0 0 0 0
          0 0 0 0 0 0
          0 0 0 0 0 0
          0 0 0 0 0 0
          0 0 0 0 0 0
          0 0 0 0 0 0
          0 0 0 0 0 0
          0 0 0 0 0 0
          0 0 0 0 0 0
          0 0 0 0 0 0
          0 0 0 0 0 0
          0 0 0 0 0 0
          0 0 0 0 0 0
          0 0 0 0 0 0
          0 0 0 0 0 0
          0 0 0 0 0 0
          0 0 0 0 0 0
          0 0 0 0 0 0
          0 0 0 0 0 0
          0 0 0 0 0 0
          0 0 0 0 0 0
          0 0 0 0 0 0
          0 0 0 0 0 0
          0 0 0 0 0 0
          0 0 0 0 0 0
          0 0 0 0 0 0
          0 0 0 0 0 0
          0 0 0 0 0 0
          0 0 0 0 0 0
          0 0 0 0 0 0
          0 0 0 0 0 0
          0 0 0 0 0 0
          0 0 0 0 0 0
          0 0 0 0 0 0
          0 0 0 0 0 0
          0 0 0 0 0 0
          0 0 0 0 0 0
          0 0 0 0 0 0
          0 0 0 0 0 0
          0 0 0 0 0 0
          0 0 0 0 0 0
          0 0 0 0 0 0
          0 0 0 0 0 0
          0 0 0 0 0 0
          0 0 0 0 0 0
          0 0 0 0 0 0
          0 0 0 0 0 0
          0 0 0 0 0 0
          0 0 0 0 0 0
          0 0 0 0 0 0
          0 0 0 0 0 0
          0 0 0 0 0 0
          0 0 0 0 0 0
          0 0 0 0 0 0
          0 0 0 0 0 0
          0 0 0 0 0 0
          0 0 0 0 0 0
          0 0 0 0 0 0
          0 0 0 0 0 0
          0 0 0 0 0 0
          0 0 0 0 0 0
          0 0 0 0 0 0
          0 0 0 0 0 0
          0 0 0 0 0 0
          0 0 0 0 0 0
          0 0 0 0 0 0
          0 0 0 0 0 0
          0 0 0 0 0 0
          0 0 0 0 0 0
          0 0 0 0 0 0
          0 0 0 0 0 0
          0 0 0 0 0 0
          0 0 0 0 0 0
          0 0 0 0 0 0
          0 0 0 0 0 0
          0 0 0 0 0 0
          0 0 0 0 0 0
          0 0 0 0 0 0
          0 0 0 0 0 0
          0 0 0 0 0 0
          0 0 0 0 0 0
          0 0 0 0 0 0
          0 0 0 0 0 0
          0 0 0 0 0 0
          0 0 0 0 0 0
          0 0 0 0 0 0
          0 0 0 0 0 0
          0 0 0 0 0 0
          0 0 0 0 0 0
          0 0 0 0 0 0
          0 0 0 0 0 0
          0 0 0 0 0 0
          0 0 0 0 0 0
          0 0 0 0 0 0
          0 0 0 0 0 0
          0 0 0 0 0 0
          0 0 0 0 0 0
          0 0 0 0 0 0
          0 0 0 0 0 0
          0 0 0 0 0 0
          0 0 0 0 0 0
          0 0 0 0 0 0
          0 0 0 0 0 0
          0 0 0 0 0 0
          0 0 0 0 0 0
          0 0 0 0 0 0
          0 0 0 0 0 0
          0 0 0 0 0 0
          0 0 0 0 0 0
          0 0 0 0 0 0
          0 0 0 0 0 0
          0 0 0 0 0 0
          0 0 0 0 0 0
          0 0 0 0 0 0
          0 0 0 0 0 0
          0 0 0 0 0 0
          0 0 0 0 0 0
          0 0 0 0 0 0
          0 0 0 0 0 0
          0 0 0 0 0 0
          0 0 0 0 0 0
          0 0 0 0 0 0
          0 0 0 0 0 0
          0 0 0 0 0 0
          0 0 0 0 0 0
          0 0 0 0 0 0
          0 0 0 0 0 0
          0 0 0 0 0 0
          0 0 0 0 0 0
          0 0 0 0 0 0
          0 0 0 0 0 0
          0 0 0 0 0 0
          0 0 0 0 0 0
          0 0 0 0 0 0
          0 0 0 0 0 0
          0 0 0 0 0 0
          0 0 0 0 0 0
          0 0 0 0 0 0
          0 0 0 0 0 0
          0 0 0 0 0 0
          0 0 0 0 0 0
          0 0 0 0 0 0
          0 0 0 0 0 0
          0 0 0 0 0 0
          0 0 0 0 0 0
          0 0 0 0 0 0
          0 0 0 0 0 0
          0 0 0 0 0 0
          0 0 0 0 0 0
          0 0 0 0 0 0
          0 0 0 0 0 0
          0 0 0 0 0 0
          0 0 0 0 0 0
          0 0 0 0 0 0
          0 0 0 0 0 0
          0 0 0 0 0 0
          0 0 0 0 0 0
          0 0 0 0 0 0
          0 0 0 0 0 0
          0 0 0 0 0 0
          0 0 0 0 0 0
          0 0 0 0 0 0
          0 0 0 0 0 0
          0 0 0 0 0 0
          0 0 0 0 0 0
          0 0 0 0 0 0
          0 0 0 0 0 0
          0 0 0 0 0 0
          0 0 0 0 0 0
          0 0 0 0 0 0
          0 0 0 0 0 0
          0 0 0 0 0 0
          0 0 0 0 0 0
          0 0 0 0 0 0
          0 0 0 0 0 0
          0 0 0 0 0 0
          0 0 0 0 0 0
          0 0 0 0 0 0
          0 0 0 0 0 0
          0 0 0 0 0 0
          0 0 0 0 0 0
          0 0 0 0 0 0
          0 0 0 0 0 0
          0 0 0 0 0 0
          0 0 0 0 0 0
          0 0 0 0 0 0
          0 0 0 0 0 0
          0 0 0 0 0 0
          0 0 0 0 0 0
          0 0 0 0 0 0
          0 0 0 0 0 0
          0 0 0 0 0 0
          0 0 0 0 0 0
          0 0 0 0 0 0
          0 0 0 0 0 0
          0 0 0 0 0 0
          0 0 0 0 0 0
          0 0 0 0 0 0
          0 0 0 0 0 0
          0 0 0 0 0 0
          0 0 0 0 0 0
          0 0 0 0 0 0
          0 0 0 0 0 0
          0 0 0 0 0 0
          0 0 0 0 0 0
          0 0 0 0 0 0
          0 0 0 0 0 0
          0 0 0 0 0 0
          0 0 0 0 0 0
          0 0 0 0 0 0
          0 0 0 0 0 0
          0 0 0 0 0 0
          0 0 0 0 0 0
          0 0 0 0 0 0
          0 0 0 0 0 0
          0 0 0 0 0 0
          0 0 0 0 0 0
          0 0 0 0 0 0
          0 0 0 0 0 0
          0 0 0 0 0 0
          0 0 0 0 0 0
          0 0 0 0 0 0
          0 0 0 0 0 0
          0 0 0 0 0 0
          0 0 0 0 0 0
          0 0 0 0 0 0
          0 0 0 0 0 0
          0 0 0 0 0 0
          0 0 0 0 0 0
          0 0 0 0 0 0
          0 0 0 0 0 0
          0 0 0 0 0 0
          0 0 0 0 0 0
          0 0 0 0 0 0
          0 0 0 0 0 0
          0 0 0 0 0 0
          0 0 0 0 0 0
          0 0 0 0 0 0
          0 0 0 0 0 0
          0 0 0 0 0 0
          0 0 0 0 0 0
          0 0 0 0 0 0
          0 0 0 0 0 0
          0 0 0 0 0 0
          0 0 0 0 0 0
          0 0 0 0 0 0
          0 0 0 0 0 0
          0 0 0 0 0 0
          0 0 0 0 0 0
          0 0 0 0 0 0
          0 0 0 0 0 0
          0 0 0 0 0 0
          0 0 0 0 0 0
          0 0 0 0 0 0
          0 0 0 0 0 0
          0 0 0 0 0 0
          0 0 0 0 0 0
          0 0 0 0 0 0
          0 0 0 0 0 0
          0 0 0 0 0 0
          0 0 0 0 0 0
          0 0 0 0 0 0
          0 0 0 0 0 0
          0 0 0 0 0 0
          0 0 0 0 0 0
          0 0 0 0 0 0
          0 0 0 0 0 0
          0 0 0 0 0 0
          0 0 0 0 0 0
          0 0 0 0 0 0
          0 0 0 0 0 0
          0 0 0 0 0 0
          0 0 0 0 0 0
          0 0 0 0 0 0
          0 0 0 0 0 0
          0 0 0 0 0 0
          0 0 0 0 0 0
          0 0 0 0 0 0
          0 0 0 0 0 0
          0 0 0 0 0 0
          0 0 0 0 0 0
          0 0 0 0 0 0
          0 0 0 0 0 0
          0 0 0 0 0 0
          0 0 0 0 0 0
          0 0 0 0 0 0
          0 0 0 0 0 0
          0 0 0 0 0 0
          0 0 0 0 0 0
          0 0 0 0 0 0
          0 0 0 0 0 0
          0 0 0 0 0 0
          0 0 0 0 0 0
          0 0 0 0 0 0
          0 0 0 0 0 0
          0 0 0 0 0 0
          0 0 0 0 0 0
          0 0 0 0 0 0
          0 0 0 0 0 0
          0 0 0 0 0 0
          0 0 0 0 0 0
          0 0 0 0 0 0
          0 0 0 0 0 0
          0 0 0 0 0 0
          0 0 0 0 0 0
          0 0 0 0 0 0
          0 0 0 0 0 0
          0 0 0 0 0 0
          0 0 0 0 0 0
          0 0 0 0 0 0
          0 0 0 0 0 0
          0 0 0 0 0 0
          0 0 0 0 0 0
          0 0 0 0 0 0
          0 0 0 0 0 0
          0 0 0 0 0 0
          0 0 0 0 0 0
          0 0 0 0 0 0
          0 0 0 0 0 0
          0 0 0 0 0 0
          0 0 0 0 0 0
          0 0 0 0 0 0
          0 0 0 0 0 0
          0 0 0 0 0 0
          0 0 0 0 0 0
          0 0 0 0 0 0
          0 0 0 0 0 0
          0 0 0 0 0 0
          0 0 0 0 0 0
          0 0 0 0 0 0
          0 0 0 0 0 0
          0 0 0 0 0 0
          0 0 0 0 0 0
          0 0 0 0 0 0
          0 0 0 0 0 0
          0 0 0 0 0 0
          0 0 0 0 0 0
          0 0 0 0 0 0
          0 0 0 0 0 0
          0 0 0 0 0 0
          0 0 0 0 0 0
          0 0 0 0 0 0
          0 0 0 0 0 0
          0 0 0 0 0 0
          0 0 0 0 0 0
          0 0 0 0 0 0
          0 0 0 0 0 0
          0 0 0 0 0 0
          0 0 0 0 0 0
          0 0 0 0 0 0
          0 0 0 0 0 0
          0 0 0 0 0 0
          0 0 0 0 0 0
          0 0 0 0 0 0
          0 0 0 0 0 0
          0 0 0 0 0 0
          0 0 0 0 0 0
          0 0 0 0 0 0
          0 0 0 0 0 0
          0 0 0 0 0 0
          0 0 0 0 0 0
          0 0 0 0 0 0
          0 0 0 0 0 0
          0 0 0 0 0 0
          0 0 0 0 0 0
          0 0 0 0 0 0
          0 0 0 0 0 0
          0 0 0 0 0 0
          0 0 0 0 0 0
          0 0 0 0 0 0
          0 0 0 0 0 0
          0 0 0 0 0 0
          0 0 0 0 0 0
          0 0 0 0 0 0
          0 0 0 0 0 0
          0 0 0 0 0 0
          0 0 0 0 0 0
          0 0 0 0 0 0
          0 0 0 0 0 0
          0 0 0 0 0 0
          0 0 0 0 0 0
          0 0 0 0 0 0
          0 0 0 0 0 0
          0 0 0 0 0 0
          0 0 0 0 0 0
          0 0 0 0 0 0
          0 0 0 0 0 0
          0 0 0 0 0 0
          0 0 0 0 0 0
          0 0 0 0 0 0
          0 0 0 0 0 0
          0 0 0 0 0 0
          0 0 0 0 0 0
          0 0 0 0 0 0
          0 0 0 0 0 0
          0 0 0 0 0 0
          0 0 0 0 0 0
          0 0 0 0 0 0
          0 0 0 0 0 0
          0 0 0 0 0 0
          0 0 0 0 0 0
          0 0 0 0 0 0
          0 0 0 0 0 0
          0 0 0 0 0 0
          0 0 0 0 0 0
          0 0 0 0 0 0
          0 0 0 0 0 0
          0 0 0 0 0 0
          0 0 0 0 0 0
          0 0 0 0 0 0
          0 0 0 0 0 0
          0 0 0 0 0 0
          0 0 0 0 0 0
          0 0 0 0 0 0
          0 0 0 0 0 0
          0 0 0 0 0 0
          0 0 0 0 0 0
          0 0 0 0 0 0
          0 0 0 0 0 0
          0 0 0 0 0 0
          0 0 0 0 0 0
          0 0 0 0 0 0
          0 0 0 0 0 0
          0 0 0 0 0 0
          0 0 0 0 0 0
          0 0 0 0 0 0
          0 0 0 0 0 0
          0 0 0 0 0 0
          0 0 0 0 0 0
          0 0 0 0 0 0
          0 0 0 0 0 0
          0 0 0 0 0 0
          0 0 0 0 0 0
          0 0 0 0 0 0
          0 0 0 0 0 0
          0 0 0 0 0 0
          0 0 0 0 0 0
          0 0 0 0 0 0
          0 0 0 0 0 0
          0 0 0 0 0 0
          0 0 0 0 0 0
          0 0 0 0 0 0
          0 0 0 0 0 0
          0 0 0 0 0 0
          0 0 0 0 0 0
          0 0 0 0 0 0
          0 0 0 0 0 0
          0 0 0 0 0 0
          0 0 0 0 0 0
          0 0 0 0 0 0
          0 0 0 0 0 0
          0 0 0 0 0 0
          0 0 0 0 0 0
          0 0 0 0 0 0
          0 0 0 0 0 0
          0 0 0 0 0 0
          0 0 0 0 0 0
          0 0 0 0 0 0
          0 0 0 0 0 0
          0 0 0 0 0 0
          0 0 0 0 0 0
          0 0 0 0 0 0
          0 0 0 0 0 0
          0 0 0 0 0 0
          0 0 0 0 0 0
          0 0 0 0 0 0
          0 0 0 0 0 0
          0 0 0 0 0 0
          0 0 0 0 0 0
          0 0 0 0 0 0
          0 0 0 0 0 0
          0 0 0 0 0 0
          0 0 0 0 0 0
          0 0 0 0 0 0
          0 0 0 0 0 0
          0 0 0 0 0 0
          0 0 0 0 0 0
          0 0 0 0 0 0
          0 0 0 0 0 0
          0 0 0 0 0 0
          0 0 0 0 0 0
          0 0 0 0 0 0
          0 0 0 0 0 0
          0 0 0 0 0 0
          0 0 0 0 0 0
          0 0 0 0 0 0
          0 0 0 0 0 0
          0 0 0 0 0 0
          0 0 0 0 0 0
          0 0 0 0 0 0
          0 0 0 0 0 0
          0 0 0 0 0 0
          0 0 0 0 0 0
          0 0 0 0 0 0
          0 0 0 0 0 0
          0 0 0 0 0 0
          0 0 0 0 0 0
          0 0 0 0 0 0
          0 0 0 0 0 0
          0 0 0 0 0 0
          0 0 0 0 0 0
          0 0 0 0 0 0
          0 0 0 0 0 0
          0 0 0 0 0 0
          0 0 0 0 0 0
          0 0 0 0 0 0
          0 0 0 0 0 0
          0 0 0 0 0 0
          0 0 0 0 0 0
          0 0 0 0 0 0
          0 0 0 0 0 0
          0 0 0 0 0 0
          0 0 0 0 0 0
          0 0 0 0 0 0
          0 0 0 0 0 0
          0 0 0 0 0 0
          0 0 0 0 0 0
          0 0 0 0 0 0
          0 0 0 0 0 0
          0 0 0 0 0 0
          0 0 0 0 0 0
          0 0 0 0 0 0
          0 0 0 0 0 0
          0 0 0 0 0 0
          0 0 0 0 0 0
          0 0 0 0 0 0
          0 0 0 0 0 0
          0 0 0 0 0 0
          0 0 0 0 0 0
          0 0 0 0 0 0
          0 0 0 0 0 0
          0 0 0 0 0 0
          0 0 0 0 0 0
          0 0 0 0 0 0
          0 0 0 0 0 0
          0 0 0 0 0 0
          0 0 0 0 0 0
          0 0 0 0 0 0
          0 0 0 0 0 0
          0 0 0 0 0 0
          0 0 0 0 0 0
          0 0 0 0 0 0
          0 0 0 0 0 0
          0 0 0 0 0 0
          0 0 0 0 0 0
          0 0 0 0 0 0
          0 0 0 0 0 0
          0 0 0 0 0 0
          0 0 0 0 0 0
          0 0 0 0 0 0
          0 0 0 0 0 0
          0 0 0 0 0 0
          0 0 0 0 0 0
          0 0 0 0 0 0
          0 0 0 0 0 0
          0 0 0 0 0 0
          0 0 0 0 0 0
          0 0 0 0 0 0
          0 0 0 0 0 0
          0 0 0 0 0 0
          0 0 0 0 0 0
          0 0 0 0 0 0
          0 0 0 0 0 0
          0 0 0 0 0 0
          0 0 0 0 0 0
          0 0 0 0 0 0
          0 0 0 0 0 0
          0 0 0 0 0 0
          0 0 0 0 0 0
          0 0 0 0 0 0
          0 0 0 0 0 0
          0 0 0 0 0 0
          0 0 0 0 0 0
          0 0 0 0 0 0
          0 0 0 0 0 0
          0 0 0 0 0 0
          0 0 0 0 0 0
          0 0 0 0 0 0
          0 0 0 0 0 0
          0 0 0 0 0 0
          0 0 0 0 0 0
          0 0 0 0 0 0
          0 0 0 0 0 0
          0 0 0 0 0 0
          0 0 0 0 0 0
          0 0 0 0 0 0
          0 0 0 0 0 0
          0 0 0 0 0 0
          0 0 0 0 0 0
          0 0 0 0 0 0
          0 0 0 0 0 0
          0 0 0 0 0 0
          0 0 0 0 0 0
          0 0 0 0 0 0
          0 0 0 0 0 0
          0 0 0 0 0 0
          0 0 0 0 0 0
          0 0 0 0 0 0
          0 0 0 0 0 0
          0 0 0 0 0 0
          0 0 0 0 0 0
          0 0 0 0 0 0
          0 0 0 0 0 0
          0 0 0 0 0 0
          0 0 0 0 0 0
          0 0 0 0 0 0
          0 0 0 0 0 0
          0 0 0 0 0 0
          0 0 0 0 0 0
          0 0 0 0 0 0
          0 0 0 0 0 0
          0 0 0 0 0 0
          0 0 0 0 0 0
          0 0 0 0 0 0
          0 0 0 0 0 0
          0 0 0 0 0 0
          0 0 0 0 0 0
          0 0 0 0 0 0
          0 0 0 0 0 0
          0 0 0 0 0 0
          0 0 0 0 0 0
          0 0 0 0 0 0
          0 0 0 0 0 0
          0 0 0 0 0 0
          0 0 0 0 0 0
          0 0 0 0 0 0
          0 0 0 0 0 0
          0 0 0 0 0 0
          0 0 0 0 0 0
          0 0 0 0 0 0
          0 0 0 0 0 0
          0 0 0 0 0 0
          0 0 0 0 0 0
          0 0 0 0 0 0
          0 0 0 0 0 0
          0 0 0 0 0 0
          0 0 0 0 0 0
          0 0 0 0 0 0
          0 0 0 0 0 0
          0 0 0 0 0 0
          0 0 0 0 0 0
          0 0 0 0 0 0
          0 0 0 0 0 0
          0 0 0 0 0 0
          0 0 0 0 0 0
          0 0 0 0 0 0
          0 0 0 0 0 0
          0 0 0 0 0 0
          0 0 0 0 0 0
          0 0 0 0 0 0
          0 0 0 0 0 0
          0 0 0 0 0 0
          0 0 0 0 0 0
          0 0 0 0 0 0
          0 0 0 0 0 0
          0 0 0 0 0 0
          0 0 0 0 0 0
          0 0 0 0 0 0
          0 0 0 0 0 0
          0 0 0 0 0 0
          0 0 0 0 0 0
          0 0 0 0 0 0
          0 0 0 0 0 0
          0 0 0 0 0 0
          0 0 0 0 0 0
          0 0 0 0 0 0
          0 0 0 0 0 0
          0 0 0 0 0 0
          0 0 0 0 0 0
          0 0 0 0 0 0
          0 0 0 0 0 0
          0 0 0 0 0 0
          0 0 0 0 0 0
          0 0 0 0 0 0
          0 0 0 0 0 0
          0 0 0 0 0 0
          0 0 0 0 0 0
          0 0 0 0 0 0
          0 0 0 0 0 0
          0 0 0 0 0 0
          0 0 0 0 0 0
          0 0 0 0 0 0
          0 0 0 0 0 0
          0 0 0 0 0 0
          0 0 0 0 0 0
          0 0 0 0 0 0
          0 0 0 0 0 0
          0 0 0 0 0 0
          0 0 0 0 0 0
          0 0 0 0 0 0
          0 0 0 0 0 0
          0 0 0 0 0 0
          0 0 0 0 0 0
          0 0 0 0 0 0
          0 0 0 0 0 0
          0 0 0 0 0 0
          0 0 0 0 0 0
          0 0 0 0 0 0
          0 0 0 0 0 0
          0 0 0 0 0 0
          0 0 0 0 0 0
          0 0 0 0 0 0
          0 0 0 0 0 0
          0 0 0 0 0 0
          0 0 0 0 0 0
          0 0 0 0 0 0
          0 0 0 0 0 0
          0 0 0 0 0 0
          0 0 0 0 0 0
          0 0 0 0 0 0
          0 0 0 0 0 0
          0 0 0 0 0 0
          0 0 0 0 0 0
          0 0 0 0 0 0
          0 0 0 0 0 0
          0 0 0 0 0 0
          0 0 0 0 0 0
          0 0 0 0 0 0
          0 0 0 0 0 0
          0 0 0 0 0 0
          0 0 0 0 0 0
          0 0 0 0 0 0
          0 0 0 0 0 0
          0 0 0 0 0 0
          0 0 0 0 0 0
          0 0 0 0 0 0
          0 0 0 0 0 0
          0 0 0 0 0 0
          0 0 0 0 0 0
          0 0 0 0 0 0
          0 0 0 0 0 0
          0 0 0 0 0 0
          0 0 0 0 0 0
          0 0 0 0 0 0
          0 0 0 0 0 0
          0 0 0 0 0 0
          0 0 0 0 0 0
          0 0 0 0 0 0
          0 0 0 0 0 0
          0 0 0 0 0 0
          0 0 0 0 0 0
          0 0 0 0 0 0
          0 0 0 0 0 0
          0 0 0 0 0 0
          0 0 0 0 0 0
          0 0 0 0 0 0
          0 0 0 0 0 0
          0 0 0 0 0 0
          0 0 0 0 0 0
          0 0 0 0 0 0
          0 0 0 0 0 0
          0 0 0 0 0 0
          0 0 0 0 0 0
          0 0 0 0 0 0
          0 0 0 0 0 0
          0 0 0 0 0 0
          0 0 0 0 0 0
          0 0 0 0 0 0
          0 0 0 0 0 0
          0 0 0 0 0 0
          0 0 0 0 0 0
          0 0 0 0 0 0
          0 0 0 0 0 0
          0 0 0 0 0 0
          0 0 0 0 0 0
          0 0 0 0 0 0
          0 0 0 0 0 0
          0 0 0 0 0 0
          0 0 0 0 0 0
          0 0 0 0 0 0
          0 0 0 0 0 0
          0 0 0 0 0 0
          0 0 0 0 0 0
          0 0 0 0 0 0
          0 0 0 0 0 0
          0 0 0 0 0 0
          0 0 0 0 0 0
          0 0 0 0 0 0
          0 0 0 0 0 0
          0 0 0 0 0 0
          0 0 0 0 0 0
          0 0 0 0 0 0
          0 0 0 0 0 0
          0 0 0 0 0 0
          0 0 0 0 0 0
          0 0 0 0 0 0
          0 0 0 0 0 0
          0 0 0 0 0 0
          0 0 0 0 0 0
          0 0 0 0 0 0
          0 0 0 0 0 0
          0 0 0 0 0 0
          0 0 0 0 0 0
          0 0 0 0 0 0
          0 0 0 0 0 0
          0 0 0 0 0 0
          0 0 0 0 0 0
          0 0 0 0 0 0
          0 0 0 0 0 0
          0 0 0 0 0 0
          0 0 0 0 0 0
          0 0 0 0 0 0
          0 0 0 0 0 0
          0 0 0 0 0 0
          0 0 0 0 0 0
          0 0 0 0 0 0
          0 0 0 0 0 0
          0 0 0 0 0 0
          0 0 0 0 0 0
          0 0 0 0 0 0
          0 0 0 0 0 0
          0 0 0 0 0 0
          0 0 0 0 0 0
          0 0 0 0 0 0
          0 0 0 0 0 0
          0 0 0 0 0 0
          0 0 0 0 0 0
          0 0 0 0 0 0
          0 0 0 0 0 0
          0 0 0 0 0 0
          0 0 0 0 0 0
          0 0 0 0 0 0
          0 0 0 0 0 0
          0 0 0 0 0 0
          0 0 0 0 0 0
          0 0 0 0 0 0
          0 0 0 0 0 0
          0 0 0 0 0 0
          0 0 0 0 0 0
          0 0 0 0 0 0
          0 0 0 0 0 0
          0 0 0 0 0 0
          0 0 0 0 0 0
          0 0 0 0 0 0
          0 0 0 0 0 0
          0 0 0 0 0 0
          0 0 0 0 0 0
          0 0 0 0 0 0
          0 0 0 0 0 0
          0 0 0 0 0 0
          0 0 0 0 0 0
          0 0 0 0 0 0
          0 0 0 0 0 0
          0 0 0 0 0 0
          0 0 0 0 0 0
          0 0 0 0 0 0
          0 0 0 0 0 0
          0 0 0 0 0 0
          0 0 0 0 0 0
          0 0 0 0 0 0
          0 0 0 0 0 0
          0 0 0 0 0 0
          0 0 0 0 0 0
          0 0 0 0 0 0
          0 0 0 0 0 0
          0 0 0 0 0 0
          0 0 0 0 0 0
          0 0 0 0 0 0
          0 0 0 0 0 0
          0 0 0 0 0 0
          0 0 0 0 0 0
          0 0 0 0 0 0
          0 0 0 0 0 0
          0 0 0 0 0 0
          0 0 0 0 0 0
          0 0 0 0 0 0
          0 0 0 0 0 0
          0 0 0 0 0 0
          0 0 0 0 0 0
          0 0 0 0 0 0
          0 0 0 0 0 0
          0 0 0 0 0 0
          0 0 0 0 0 0
          0 0 0 0 0 0
          0 0 0 0 0 0
          0 0 0 0 0 0
          0 0 0 0 0 0
          0 0 0 0 0 0
          0 0 0 0 0 0
          0 0 0 0 0 0
          0 0 0 0 0 0
          0 0 0 0 0 0
          0 0 0 0 0 0
          0 0 0 0 0 0
          0 0 0 0 0 0
          0 0 0 0 0 0
          0 0 0 0 0 0
          0 0 0 0 0 0
          0 0 0 0 0 0
          0 0 0 0 0 0
          0 0 0 0 0 0
          0 0 0 0 0 0
          0 0 0 0 0 0
          0 0 0 0 0 0
          0 0 0 0 0 0
          0 0 0 0 0 0
          0 0 0 0 0 0
          0 0 0 0 0 0
          0 0 0 0 0 0
          0 0 0 0 0 0
          0 0 0 0 0 0
          0 0 0 0 0 0
          0 0 0 0 0 0
          0 0 0 0 0 0
          0 0 0 0 0 0
          0 0 0 0 0 0
          0 0 0 0 0 0
          0 0 0 0 0 0
          0 0 0 0 0 0
          0 0 0 0 0 0
          0 0 0 0 0 0
          0 0 0 0 0 0
          0 0 0 0 0 0
          0 0 0 0 0 0
          0 0 0 0 0 0
          0 0 0 0 0 0
          0 0 0 0 0 0
          0 0 0 0 0 0
          0 0 0 0 0 0
          0 0 0 0 0 0
          0 0 0 0 0 0
          0 0 0 0 0 0
          0 0 0 0 0 0
          0 0 0 0 0 0
          0 0 0 0 0 0
          0 0 0 0 0 0
          0 0 0 0 0 0
          0 0 0 0 0 0
          0 0 0 0 0 0
          0 0 0 0 0 0
          0 0 0 0 0 0
          0 0 0 0 0 0
          0 0 0 0 0 0
          0 0 0 0 0 0
          0 0 0 0 0 0
          0 0 0 0 0 0
          0 0 0 0 0 0
          0 0 0 0 0 0
          0 0 0 0 0 0
          0 0 0 0 0 0
          0 0 0 0 0 0
          0 0 0 0 0 0
          0 0 0 0 0 0
          0 0 0 0 0 0
          0 0 0 0 0 0
          0 0 0 0 0 0
          0 0 0 0 0 0
          0 0 0 0 0 0
          0 0 0 0 0 0
          0 0 0 0 0 0
          0 0 0 0 0 0
          0 0 0 0 0 0
          0 0 0 0 0 0
          0 0 0 0 0 0
          0 0 0 0 0 0
          0 0 0 0 0 0
          0 0 0 0 0 0
          0 0 0 0 0 0
          0 0 0 0 0 0
          0 0 0 0 0 0
          0 0 0 0 0 0
          0 0 0 0 0 0
          0 0 0 0 0 0
          0 0 0 0 0 0
          0 0 0 0 0 0
          0 0 0 0 0 0
          0 0 0 0 0 0
          0 0 0 0 0 0
          0 0 0 0 0 0
          0 0 0 0 0 0
          0 0 0 0 0 0
          0 0 0 0 0 0
          0 0 0 0 0 0
          0 0 0 0 0 0
          0 0 0 0 0 0
          0 0 0 0 0 0
          0 0 0 0 0 0
          0 0 0 0 0 0
          0 0 0 0 0 0
          0 0 0 0 0 0
          0 0 0 0 0 0
          0 0 0 0 0 0
          0 0 0 0 0 0
          0 0 0 0 0 0
          0 0 0 0 0 0
          0 0 0 0 0 0
          0 0 0 0 0 0
          0 0 0 0 0 0
          0 0 0 0 0 0
          0 0 0 0 0 0
          0 0 0 0 0 0
          0 0 0 0 0 0
          0 0 0 0 0 0
          0 0 0 0 0 0
          0 0 0 0 0 0
          0 0 0 0 0 0
          0 0 0 0 0 0
          0 0 0 0 0 0
          0 0 0 0 0 0
          0 0 0 0 0 0
          0 0 0 0 0 0
          0 0 0 0 0 0
          0 0 0 0 0 0
          0 0 0 0 0 0
          0 0 0 0 0 0
          0 0 0 0 0 0
          0 0 0 0 0 0
          0 0 0 0 0 0
          0 0 0 0 0 0
          0 0 0 0 0 0
          0 0 0 0 0 0
          0 0 0 0 0 0
          0 0 0 0 0 0
          0 0 0 0 0 0
          0 0 0 0 0 0
          0 0 0 0 0 0
          0 0 0 0 0 0
          0 0 0 0 0 0
          0 0 0 0 0 0
          0 0 0 0 0 0
          0 0 0 0 0 0
          0 0 0 0 0 0
          0 0 0 0 0 0
          0 0 0 0 0 0
          0 0 0 0 0 0
          0 0 0 0 0 0
          0 0 0 0 0 0
          0 0 0 0 0 0
          0 0 0 0 0 0
          0 0 0 0 0 0
          0 0 0 0 0 0
          0 0 0 0 0 0
          0 0 0 0 0 0
          0 0 0 0 0 0
          0 0 0 0 0 0
          0 0 0 0 0 0
          0 0 0 0 0 0
          0 0 0 0 0 0
          0 0 0 0 0 0
          0 0 0 0 0 0
          0 0 0 0 0 0
          0 0 0 0 0 0
          0 0 0 0 0 0
          0 0 0 0 0 0
          0 0 0 0 0 0
          0 0 0 0 0 0
          0 0 0 0 0 0
          0 0 0 0 0 0
          0 0 0 0 0 0
          0 0 0 0 0 0
          0 0 0 0 0 0
          0 0 0 0 0 0
          0 0 0 0 0 0
          0 0 0 0 0 0
          0 0 0 0 0 0
          0 0 0 0 0 0
          0 0 0 0 0 0
          0 0 0 0 0 0
          0 0 0 0 0 0
          0 0 0 0 0 0
          0 0 0 0 0 0
          0 0 0 0 0 0
          0 0 0 0 0 0
          0 0 0 0 0 0
          0 0 0 0 0 0
          0 0 0 0 0 0
          0 0 0 0 0 0
          0 0 0 0 0 0
          0 0 0 0 0 0
          0 0 0 0 0 0
          0 0 0 0 0 0
          0 0 0 0 0 0
          0 0 0 0 0 0
          0 0 0 0 0 0
          0 0 0 0 0 0
          0 0 0 0 0 0
          0 0 0 0 0 0
          0 0 0 0 0 0
          0 0 0 0 0 0
          0 0 0 0 0 0
          0 0 0 0 0 0
          0 0 0 0 0 0
          0 0 0 0 0 0
          0 0 0 0 0 0
          0 0 0 0 0 0
          0 0 0 0 0 0
          0 0 0 0 0 0
          0 0 0 0 0 0
          0 0 0 0 0 0
          0 0 0 0 0 0
          0 0 0 0 0 0
          0 0 0 0 0 0
          0 0 0 0 0 0
          0 0 0 0 0 0
          0 0 0 0 0 0
          0 0 0 0 0 0
          0 0 0 0 0 0
          0 0 0 0 0 0
          0 0 0 0 0 0
          0 0 0 0 0 0
          0 0 0 0 0 0
          0 0 0 0 0 0
          0 0 0 0 0 0
          0 0 0 0 0 0
          0 0 0 0 0 0
          0 0 0 0 0 0
          0 0 0 0 0 0
          0 0 0 0 0 0
          0 0 0 0 0 0
          0 0 0 0 0 0
          0 0 0 0 0 0
          0 0 0 0 0 0
          0 0 0 0 0 0
          0 0 0 0 0 0
          0 0 0 0 0 0
          0 0 0 0 0 0
          0 0 0 0 0 0
          0 0 0 0 0 0
          0 0 0 0 0 0
          0 0 0 0 0 0
          0 0 0 0 0 0
          0 0 0 0 0 0
          0 0 0 0 0 0
          0 0 0 0 0 0
          0 0 0 0 0 0
          0 0 0 0 0 0
          0 0 0 0 0 0
          0 0 0 0 0 0
          0 0 0 0 0 0
          0 0 0 0 0 0
          0 0 0 0 0 0
          0 0 0 0 0 0
          0 0 0 0 0 0
          0 0 0 0 0 0
          0 0 0 0 0 0
          0 0 0 0 0 0
          0 0 0 0 0 0
          0 0 0 0 0 0
          0 0 0 0 0 0
          0 0 0 0 0 0
          0 0 0 0 0 0
          0 0 0 0 0 0
          0 0 0 0 0 0
          0 0 0 0 0 0
          0 0 0 0 0 0
          0 0 0 0 0 0
          0 0 0 0 0 0
          0 0 0 0 0 0
          0 0 0 0 0 0
          0 0 0 0 0 0
          0 0 0 0 0 0
          0 0 0 0 0 0
          0 0 0 0 0 0
          0 0 0 0 0 0
          0 0 0 0 0 0
          0 0 0 0 0 0
          0 0 0 0 0 0
          0 0 0 0 0 0
          0 0 0 0 0 0
          0 0 0 0 0 0
          0 0 0 0 0 0
          0 0 0 0 0 0
          0 0 0 0 0 0
          0 0 0 0 0 0
          0 0 0 0 0 0
          0 0 0 0 0 0
          0 0 0 0 0 0
          0 0 0 0 0 0
          0 0 0 0 0 0
          0 0 0 0 0 0
          0 0 0 0 0 0
          0 0 0 0 0 0
          0 0 0 0 0 0
          0 0 0 0 0 0
          0 0 0 0 0 0
          0 0 0 0 0 0
          0 0 0 0 0 0
          0 0 0 0 0 0
          0 0 0 0 0 0
          0 0 0 0 0 0
          0 0 0 0 0 0
          0 0 0 0 0 0
          0 0 0 0 0 0
          0 0 0 0 0 0
          0 0 0 0 0 0
          0 0 0 0 0 0
          0 0 0 0 0 0
          0 0 0 0 0 0
          0 0 0 0 0 0
          0 0 0 0 0 0
          0 0 0 0 0 0
          0 0 0 0 0 0
          0 0 0 0 0 0
          0 0 0 0 0 0
          0 0 0 0 0 0
          0 0 0 0 0 0
          0 0 0 0 0 0
          0 0 0 0 0 0
          0 0 0 0 0 0
          0 0 0 0 0 0
          0 0 0 0 0 0
          0 0 0 0 0 0
          0 0 0 0 0 0
          0 0 0 0 0 0
          0 0 0 0 0 0
          0 0 0 0 0 0
          0 0 0 0 0 0
          0 0 0 0 0 0
          0 0 0 0 0 0
          0 0 0 0 0 0
          0 0 0 0 0 0
          0 0 0 0 0 0
          0 0 0 0 0 0
          0 0 0 0 0 0
          0 0 0 0 0 0
          0 0 0 0 0 0
          0 0 0 0 0 0
          0 0 0 0 0 0
          0 0 0 0 0 0
          0 0 0 0 0 0
          0 0 0 0 0 0
          0 0 0 0 0 0
          0 0 0 0 0 0
          0 0 0 0 0 0
          0 0 0 0 0 0
          0 0 0 0 0 0
          0 0 0 0 0 0
          0 0 0 0 0 0
          0 0 0 0 0 0
          0 0 0 0 0 0
          0 0 0 0 0 0
          0 0 0 0 0 0
          0 0 0 0 0 0
          0 0 0 0 0 0
          0 0 0 0 0 0
          0 0 0 0 0 0
          0 0 0 0 0 0
          0 0 0 0 0 0
          0 0 0 0 0 0
          0 0 0 0 0 0
          0 0 0 0 0 0
          0 0 0 0 0 0
          0 0 0 0 0 0
          0 0 0 0 0 0
          0 0 0 0 0 0
          0 0 0 0 0 0
          0 0 0 0 0 0
          0 0 0 0 0 0
          0 0 0 0 0 0
          0 0 0 0 0 0
          0 0 0 0 0 0
          0 0 0 0 0 0
          0 0 0 0 0 0
          0 0 0 0 0 0
          0 0 0 0 0 0
          0 0 0 0 0 0
          0 0 0 0 0 0
          0 0 0 0 0 0
          0 0 0 0 0 0
          0 0 0 0 0 0
          0 0 0 0 0 0
          0 0 0 0 0 0
          0 0 0 0 0 0
          0 0 0 0 0 0
          0 0 0 0 0 0
          0 0 0 0 0 0
          0 0 0 0 0 0
          0 0 0 0 0 0
          0 0 0 0 0 0
          0 0 0 0 0 0
          0 0 0 0 0 0
          0 0 0 0 0 0
          0 0 0 0 0 0
          0 0 0 0 0 0
          0 0 0 0 0 0
          0 0 0 0 0 0
          0 0 0 0 0 0
          0 0 0 0 0 0
          0 0 0 0 0 0
          0 0 0 0 0 0
          0 0 0 0 0 0
          0 0 0 0 0 0
          0 0 0 0 0 0
          0 0 0 0 0 0
          0 0 0 0 0 0
          0 0 0 0 0 0
          0 0 0 0 0 0
          0 0 0 0 0 0
          0 0 0 0 0 0
          0 0 0 0 0 0
          0 0 0 0 0 0
          0 0 0 0 0 0
          0 0 0 0 0 0
          0 0 0 0 0 0
          0 0 0 0 0 0
          0 0 0 0 0 0
          0 0 0 0 0 0
          0 0 0 0 0 0
          0 0 0 0 0 0
          0 0 0 0 0 0
          0 0 0 0 0 0
          0 0 0 0 0 0
          0 0 0 0 0 0
          0 0 0 0 0 0
          0 0 0 0 0 0
          0 0 0 0 0 0
          0 0 0 0 0 0
          0 0 0 0 0 0
          0 0 0 0 0 0
          0 0 0 0 0 0
          0 0 0 0 0 0
          0 0 0 0 0 0
          0 0 0 0 0 0
          0 0 0 0 0 0
          0 0 0 0 0 0
          0 0 0 0 0 0
          0 0 0 0 0 0
          0 0 0 0 0 0
          0 0 0 0 0 0
          0 0 0 0 0 0
          0 0 0 0 0 0
          0 0 0 0 0 0
          0 0 0 0 0 0
          0 0 0 0 0 0
          0 0 0 0 0 0
          0 0 0 0 0 0
          0 0 0 0 0 0
          0 0 0 0 0 0
          0 0 0 0 0 0
          0 0 0 0 0 0
          0 0 0 0 0 0
          0 0 0 0 0 0
          0 0 0 0 0 0
          0 0 0 0 0 0
          0 0 0 0 0 0
          0 0 0 0 0 0
          0 0 0 0 0 0
          0 0 0 0 0 0
          0 0 0 0 0 0
          0 0 0 0 0 0
          0 0 0 0 0 0
          0 0 0 0 0 0
          0 0 0 0 0 0
          0 0 0 0 0 0
          0 0 0 0 0 0
          0 0 0 0 0 0
          0 0 0 0 0 0
          0 0 0 0 0 0
          0 0 0 0 0 0
          0 0 0 0 0 0
          0 0 0 0 0 0
          0 0 0 0 0 0
          0 0 0 0 0 0
          0 0 0 0 0 0
          0 0 0 0 0 0
          0 0 0 0 0 0
          0 0 0 0 0 0
          0 0 0 0 0 0
          0 0 0 0 0 0
          0 0 0 0 0 0
          0 0 0 0 0 0
          0 0 0 0 0 0
          0 0 0 0 0 0
          0 0 0 0 0 0
          0 0 0 0 0 0
          0 0 0 0 0 0
          0 0 0 0 0 0
          0 0 0 0 0 0
          0 0 0 0 0 0
          0 0 0 0 0 0
          0 0 0 0 0 0
          0 0 0 0 0 0
          0 0 0 0 0 0
          0 0 0 0 0 0
          0 0 0 0 0 0
          0 0 0 0 0 0
          0 0 0 0 0 0
          0 0 0 0 0 0
          0 0 0 0 0 0
          0 0 0 0 0 0
          0 0 0 0 0 0
          0 0 0 0 0 0
          0 0 0 0 0 0
          0 0 0 0 0 0
          0 0 0 0 0 0
          0 0 0 0 0 0
          0 0 0 0 0 0
          0 0 0 0 0 0
          0 0 0 0 0 0
          0 0 0 0 0 0
          0 0 0 0 0 0
          0 0 0 0 0 0
          0 0 0 0 0 0
          0 0 0 0 0 0
          0 0 0 0 0 0
          0 0 0 0 0 0
          0 0 0 0 0 0
          0 0 0 0 0 0
          0 0 0 0 0 0
          0 0 0 0 0 0
          0 0 0 0 0 0
          0 0 0 0 0 0
          0 0 0 0 0 0
          0 0 0 0 0 0
          0 0 0 0 0 0
          0 0 0 0 0 0
          0 0 0 0 0 0
          0 0 0 0 0 0
          0 0 0 0 0 0
          0 0 0 0 0 0
          0 0 0 0 0 0
          0 0 0 0 0 0
          0 0 0 0 0 0
          0 0 0 0 0 0
          0 0 0 0 0 0
          0 0 0 0 0 0
          0 0 0 0 0 0
          0 0 0 0 0 0
          0 0 0 0 0 0
          0 0 0 0 0 0
          0 0 0 0 0 0
          0 0 0 0 0 0
          0 0 0 0 0 0
          0 0 0 0 0 0
          0 0 0 0 0 0
          0 0 0 0 0 0
          0 0 0 0 0 0
          0 0 0 0 0 0
          0 0 0 0 0 0
          0 0 0 0 0 0
          0 0 0 0 0 0
          0 0 0 0 0 0
          0 0 0 0 0 0
          0 0 0 0 0 0
          0 0 0 0 0 0
          0 0 0 0 0 0
          0 0 0 0 0 0
          0 0 0 0 0 0
          0 0 0 0 0 0
          0 0 0 0 0 0
          0 0 0 0 0 0
          0 0 0 0 0 0
          0 0 0 0 0 0
          0 0 0 0 0 0
          0 0 0 0 0 0
          0 0 0 0 0 0
          0 0 0 0 0 0
          0 0 0 0 0 0
          0 0 0 0 0 0
          0 0 0 0 0 0
          0 0 0 0 0 0
          0 0 0 0 0 0
          0 0 0 0 0 0
          0 0 0 0 0 0
          0 0 0 0 0 0
          0 0 0 0 0 0
          0 0 0 0 0 0
          0 0 0 0 0 0
          0 0 0 0 0 0
          0 0 0 0 0 0
          0 0 0 0 0 0
          0 0 0 0 0 0
          0 0 0 0 0 0
          0 0 0 0 0 0
          0 0 0 0 0 0
          0 0 0 0 0 0
          0 0 0 0 0 0
          0 0 0 0 0 0
          0 0 0 0 0 0
          0 0 0 0 0 0
          0 0 0 0 0 0
          0 0 0 0 0 0
          0 0 0 0 0 0
          0 0 0 0 0 0
          0 0 0 0 0 0
          0 0 0 0 0 0
          0 0 0 0 0 0
          0 0 0 0 0 0
          0 0 0 0 0 0
          0 0 0 0 0 0
          0 0 0 0 0 0
          0 0 0 0 0 0
          0 0 0 0 0 0
          0 0 0 0 0 0
          0 0 0 0 0 0
          0 0 0 0 0 0
          0 0 0 0 0 0
          0 0 0 0 0 0
          0 0 0 0 0 0
          0 0 0 0 0 0
          0 0 0 0 0 0
          0 0 0 0 0 0
          0 0 0 0 0 0
          0 0 0 0 0 0
          0 0 0 0 0 0
          0 0 0 0 0 0
          0 0 0 0 0 0
          0 0 0 0 0 0
          0 0 0 0 0 0
          0 0 0 0 0 0
          0 0 0 0 0 0
          0 0 0 0 0 0
          0 0 0 0 0 0
          0 0 0 0 0 0
          0 0 0 0 0 0
          0 0 0 0 0 0
          0 0 0 0 0 0
          0 0 0 0 0 0
          0 0 0 0 0 0
          0 0 0 0 0 0
          0 0 0 0 0 0
          0 0 0 0 0 0
          0 0 0 0 0 0
          0 0 0 0 0 0
          0 0 0 0 0 0
          0 0 0 0 0 0
          0 0 0 0 0 0
          0 0 0 0 0 0
          0 0 0 0 0 0
          0 0 0 0 0 0
          0 0 0 0 0 0
          0 0 0 0 0 0
          0 0 0 0 0 0
          0 0 0 0 0 0
          0 0 0 0 0 0
          0 0 0 0 0 0
          0 0 0 0 0 0
          0 0 0 0 0 0
          0 0 0 0 0 0
          0 0 0 0 0 0
          0 0 0 0 0 0
          0 0 0 0 0 0
          0 0 0 0 0 0
          0 0 0 0 0 0
          0 0 0 0 0 0
          0 0 0 0 0 0
          0 0 0 0 0 0
          0 0 0 0 0 0
          0 0 0 0 0 0
          0 0 0 0 0 0
          0 0 0 0 0 0
          0 0 0 0 0 0
          0 0 0 0 0 0
          0 0 0 0 0 0
          0 0 0 0 0 0
          0 0 0 0 0 0
          0 0 0 0 0 0
          0 0 0 0 0 0
          0 0 0 0 0 0
          0 0 0 0 0 0
          0 0 0 0 0 0
          0 0 0 0 0 0
          0 0 0 0 0 0
          0 0 0 0 0 0
          0 0 0 0 0 0
          0 0 0 0 0 0
          0 0 0 0 0 0
          0 0 0 0 0 0
          0 0 0 0 0 0
          0 0 0 0 0 0
          0 0 0 0 0 0
          0 0 0 0 0 0
          0 0 0 0 0 0
          0 0 0 0 0 0
          0 0 0 0 0 0
          0 0 0 0 0 0
          0 0 0 0 0 0
          0 0 0 0 0 0
          0 0 0 0 0 0
          0 0 0 0 0 0
          0 0 0 0 0 0
          0 0 0 0 0 0
          0 0 0 0 0 0
          0 0 0 0 0 0
          0 0 0 0 0 0
          0 0 0 0 0 0
          0 0 0 0 0 0
          0 0 0 0 0 0
          0 0 0 0 0 0
          0 0 0 0 0 0
          0 0 0 0 0 0
          0 0 0 0 0 0
          0 0 0 0 0 0
          0 0 0 0 0 0
          0 0 0 0 0 0
          0 0 0 0 0 0
          0 0 0 0 0 0
          0 0 0 0 0 0
          0 0 0 0 0 0
          0 0 0 0 0 0
          0 0 0 0 0 0
          0 0 0 0 0 0
          0 0 0 0 0 0
          0 0 0 0 0 0
          0 0 0 0 0 0
          0 0 0 0 0 0
          0 0 0 0 0 0
          0 0 0 0 0 0
          0 0 0 0 0 0
          0 0 0 0 0 0
          0 0 0 0 0 0
          0 0 0 0 0 0
          0 0 0 0 0 0
          0 0 0 0 0 0
          0 0 0 0 0 0
          0 0 0 0 0 0
          0 0 0 0 0 0
          0 0 0 0 0 0
          0 0 0 0 0 0
          0 0 0 0 0 0
          0 0 0 0 0 0
          0 0 0 0 0 0
          0 0 0 0 0 0
          0 0 0 0 0 0
          0 0 0 0 0 0
          0 0 0 0 0 0
          0 0 0 0 0 0
          0 0 0 0 0 0
          0 0 0 0 0 0
          0 0 0 0 0 0
          0 0 0 0 0 0
          0 0 0 0 0 0
          0 0 0 0 0 0
          0 0 0 0 0 0
          0 0 0 0 0 0
          0 0 0 0 0 0
          0 0 0 0 0 0
          0 0 0 0 0 0
          0 0 0 0 0 0
          0 0 0 0 0 0
          0 0 0 0 0 0
          0 0 0 0 0 0
          0 0 0 0 0 0
          0 0 0 0 0 0
          0 0 0 0 0 0
          0 0 0 0 0 0
          0 0 0 0 0 0
          0 0 0 0 0 0
          0 0 0 0 0 0
          0 0 0 0 0 0
          0 0 0 0 0 0
          0 0 0 0 0 0
          0 0 0 0 0 0
          0 0 0 0 0 0
          0 0 0 0 0 0
          0 0 0 0 0 0
          0 0 0 0 0 0
          0 0 0 0 0 0
          0 0 0 0 0 0
          0 0 0 0 0 0
          0 0 0 0 0 0
          0 0 0 0 0 0
          0 0 0 0 0 0
          0 0 0 0 0 0
          0 0 0 0 0 0
          0 0 0 0 0 0
          0 0 0 0 0 0
          0 0 0 0 0 0
          0 0 0 0 0 0
          0 0 0 0 0 0
          0 0 0 0 0 0
          0 0 0 0 0 0
          0 0 0 0 0 0
          0 0 0 0 0 0
          0 0 0 0 0 0
          0 0 0 0 0 0
          0 0 0 0 0 0
          0 0 0 0 0 0
          0 0 0 0 0 0
          0 0 0 0 0 0
          0 0 0 0 0 0
          0 0 0 0 0 0
          0 0 0 0 0 0
          0 0 0 0 0 0
          0 0 0 0 0 0
          0 0 0 0 0 0
          0 0 0 0 0 0
          0 0 0 0 0 0
          0 0 0 0 0 0
          0 0 0 0 0 0
          0 0 0 0 0 0
          0 0 0 0 0 0
          0 0 0 0 0 0
          0 0 0 0 0 0
          0 0 0 0 0 0
          0 0 0 0 0 0
          0 0 0 0 0 0
          0 0 0 0 0 0
          0 0 0 0 0 0
          0 0 0 0 0 0
          0 0 0 0 0 0
          0 0 0 0 0 0
          0 0 0 0 0 0
          0 0 0 0 0 0
          0 0 0 0 0 0
          0 0 0 0 0 0
          0 0 0 0 0 0
          0 0 0 0 0 0
          0 0 0 0 0 0
          0 0 0 0 0 0
          0 0 0 0 0 0
          0 0 0 0 0 0
          0 0 0 0 0 0
          0 0 0 0 0 0
          0 0 0 0 0 0
          0 0 0 0 0 0
          0 0 0 0 0 0
          0 0 0 0 0 0
          0 0 0 0 0 0
          0 0 0 0 0 0
          0 0 0 0 0 0
          0 0 0 0 0 0
          0 0 0 0 0 0
          0 0 0 0 0 0
          0 0 0 0 0 0
          0 0 0 0 0 0
          0 0 0 0 0 0
          0 0 0 0 0 0
          0 0 0 0 0 0
          0 0 0 0 0 0
          0 0 0 0 0 0
          0 0 0 0 0 0
          0 0 0 0 0 0
          0 0 0 0 0 0
          0 0 0 0 0 0
          0 0 0 0 0 0
          0 0 0 0 0 0
          0 0 0 0 0 0
          0 0 0 0 0 0
          0 0 0 0 0 0
          0 0 0 0 0 0
          0 0 0 0 0 0
          0 0 0 0 0 0
          0 0 0 0 0 0
          0 0 0 0 0 0
          0 0 0 0 0 0
          0 0 0 0 0 0
          0 0 0 0 0 0
          0 0 0 0 0 0
          0 0 0 0 0 0
          0 0 0 0 0 0
          0 0 0 0 0 0
          0 0 0 0 0 0
          0 0 0 0 0 0
          0 0 0 0 0 0
          0 0 0 0 0 0
          0 0 0 0 0 0
          0 0 0 0 0 0
          0 0 0 0 0 0
          0 0 0 0 0 0
          0 0 0 0 0 0
          0 0 0 0 0 0
          0 0 0 0 0 0
          0 0 0 0 0 0
          0 0 0 0 0 0
          0 0 0 0 0 0
          0 0 0 0 0 0
          0 0 0 0 0 0
          0 0 0 0 0 0
          0 0 0 0 0 0
          0 0 0 0 0 0
          0 0 0 0 0 0
          0 0 0 0 0 0
          0 0 0 0 0 0
          0 0 0 0 0 0
          0 0 0 0 0 0
          0 0 0 0 0 0
          0 0 0 0 0 0
          0 0 0 0 0 0
          0 0 0 0 0 0
          0 0 0 0 0 0
          0 0 0 0 0 0
          0 0 0 0 0 0
          0 0 0 0 0 0
          0 0 0 0 0 0
          0 0 0 0 0 0
          0 0 0 0 0 0
          0 0 0 0 0 0
          0 0 0 0 0 0
          0 0 0 0 0 0
          0 0 0 0 0 0
          0 0 0 0 0 0
          0 0 0 0 0 0
          0 0 0 0 0 0
          0 0 0 0 0 0
          0 0 0 0 0 0
          0 0 0 0 0 0
          0 0 0 0 0 0
          0 0 0 0 0 0
          0 0 0 0 0 0
          0 0 0 0 0 0
          0 0 0 0 0 0
          0 0 0 0 0 0
          0 0 0 0 0 0
          0 0 0 0 0 0
          0 0 0 0 0 0
          0 0 0 0 0 0
          0 0 0 0 0 0
          0 0 0 0 0 0
          0 0 0 0 0 0
          0 0 0 0 0 0
          0 0 0 0 0 0
          0 0 0 0 0 0
          0 0 0 0 0 0
          0 0 0 0 0 0
          0 0 0 0 0 0
          0 0 0 0 0 0
          0 0 0 0 0 0
          0 0 0 0 0 0
          0 0 0 0 0 0
          0 0 0 0 0 0
          0 0 0 0 0 0
          0 0 0 0 0 0
          0 0 0 0 0 0
          0 0 0 0 0 0
          0 0 0 0 0 0
          0 0 0 0 0 0
          0 0 0 0 0 0
          0 0 0 0 0 0
          0 0 0 0 0 0
          0 0 0 0 0 0
          0 0 0 0 0 0
          0 0 0 0 0 0
          0 0 0 0 0 0
          0 0 0 0 0 0
          0 0 0 0 0 0
          0 0 0 0 0 0
          0 0 0 0 0 0
          0 0 0 0 0 0
          0 0 0 0 0 0
          0 0 0 0 0 0
          0 0 0 0 0 0
          0 0 0 0 0 0
          0 0 0 0 0 0
          0 0 0 0 0 0
          0 0 0 0 0 0
          0 0 0 0 0 0
          0 0 0 0 0 0
          0 0 0 0 0 0
          0 0 0 0 0 0
          0 0 0 0 0 0
          0 0 0 0 0 0
          0 0 0 0 0 0
          0 0 0 0 0 0
          0 0 0 0 0 0
          0 0 0 0 0 0
          0 0 0 0 0 0
          0 0 0 0 0 0
          0 0 0 0 0 0
          0 0 0 0 0 0
          0 0 0 0 0 0
          0 0 0 0 0 0
          0 0 0 0 0 0
          0 0 0 0 0 0
          0 0 0 0 0 0
          0 0 0 0 0 0
          0 0 0 0 0 0
          0 0 0 0 0 0
          0 0 0 0 0 0
          0 0 0 0 0 0
          0 0 0 0 0 0
          0 0 0 0 0 0
          0 0 0 0 0 0
          0 0 0 0 0 0
          0 0 0 0 0 0
          0 0 0 0 0 0
          0 0 0 0 0 0
          0 0 0 0 0 0
          0 0 0 0 0 0
          0 0 0 0 0 0
          0 0 0 0 0 0
          0 0 0 0 0 0
          0 0 0 0 0 0
          0 0 0 0 0 0
          0 0 0 0 0 0
          0 0 0 0 0 0
          0 0 0 0 0 0
          0 0 0 0 0 0
          0 0 0 0 0 0
          0 0 0 0 0 0
          0 0 0 0 0 0
          0 0 0 0 0 0
          0 0 0 0 0 0
          0 0 0 0 0 0
          0 0 0 0 0 0
          0 0 0 0 0 0
          0 0 0 0 0 0
          0 0 0 0 0 0
          0 0 0 0 0 0
          0 0 0 0 0 0
          0 0 0 0 0 0
          0 0 0 0 0 0
          0 0 0 0 0 0
          0 0 0 0 0 0
          0 0 0 0 0 0
          0 0 0 0 0 0
          0 0 0 0 0 0
          0 0 0 0 0 0
          0 0 0 0 0 0
          0 0 0 0 0 0
          0 0 0 0 0 0
          0 0 0 0 0 0
          0 0 0 0 0 0
          0 0 0 0 0 0
          0 0 0 0 0 0
          0 0 0 0 0 0
          0 0 0 0 0 0
          0 0 0 0 0 0
          0 0 0 0 0 0
          0 0 0 0 0 0
          0 0 0 0 0 0
          0 0 0 0 0 0
          0 0 0 0 0 0
          0 0 0 0 0 0
          0 0 0 0 0 0
          0 0 0 0 0 0
          0 0 0 0 0 0
          0 0 0 0 0 0
          0 0 0 0 0 0
          0 0 0 0 0 0
          0 0 0 0 0 0
          0 0 0 0 0 0
          0 0 0 0 0 0
          0 0 0 0 0 0
          0 0 0 0 0 0
          0 0 0 0 0 0
          0 0 0 0 0 0
          0 0 0 0 0 0
          0 0 0 0 0 0
          0 0 0 0 0 0
          0 0 0 0 0 0
          0 0 0 0 0 0
          0 0 0 0 0 0
          0 0 0 0 0 0
          0 0 0 0 0 0
          0 0 0 0 0 0
          0 0 0 0 0 0
          0 0 0 0 0 0
          0 0 0 0 0 0
          0 0 0 0 0 0
          0 0 0 0 0 0
          0 0 0 0 0 0
          0 0 0 0 0 0
          0 0 0 0 0 0
          0 0 0 0 0 0
          0 0 0 0 0 0
          0 0 0 0 0 0
          0 0 0 0 0 0
          0 0 0 0 0 0
          0 0 0 0 0 0
          0 0 0 0 0 0
          0 0 0 0 0 0
          0 0 0 0 0 0
          0 0 0 0 0 0
          0 0 0 0 0 0
          0 0 0 0 0 0
          0 0 0 0 0 0
          0 0 0 0 0 0
          0 0 0 0 0 0
          0 0 0 0 0 0
          0 0 0 0 0 0
          0 0 0 0 0 0
          0 0 0 0 0 0
          0 0 0 0 0 0
          0 0 0 0 0 0
          0 0 0 0 0 0
          0 0 0 0 0 0
          0 0 0 0 0 0
          0 0 0 0 0 0
          0 0 0 0 0 0
          0 0 0 0 0 0
          0 0 0 0 0 0
          0 0 0 0 0 0
          0 0 0 0 0 0
          0 0 0 0 0 0
          0 0 0 0 0 0
          0 0 0 0 0 0
          0 0 0 0 0 0
          0 0 0 0 0 0
          0 0 0 0 0 0
          0 0 0 0 0 0
          0 0 0 0 0 0
          0 0 0 0 0 0
          0 0 0 0 0 0
          0 0 0 0 0 0
          0 0 0 0 0 0
          0 0 0 0 0 0
          0 0 0 0 0 0
          0 0 0 0 0 0
          0 0 0 0 0 0
          0 0 0 0 0 0
          0 0 0 0 0 0
          0 0 0 0 0 0
          0 0 0 0 0 0
          0 0 0 0 0 0
          0 0 0 0 0 0
          0 0 0 0 0 0
          0 0 0 0 0 0
          0 0 0 0 0 0
          0 0 0 0 0 0
          0 0 0 0 0 0
          0 0 0 0 0 0
          0 0 0 0 0 0
          0 0 0 0 0 0
          0 0 0 0 0 0
          0 0 0 0 0 0
          0 0 0 0 0 0
          0 0 0 0 0 0
          0 0 0 0 0 0
          0 0 0 0 0 0
          0 0 0 0 0 0
          0 0 0 0 0 0
          0 0 0 0 0 0
          0 0 0 0 0 0
          0 0 0 0 0 0
          0 0 0 0 0 0
          0 0 0 0 0 0
          0 0 0 0 0 0
          0 0 0 0 0 0
          0 0 0 0 0 0
          0 0 0 0 0 0
          0 0 0 0 0 0
          0 0 0 0 0 0
          0 0 0 0 0 0
          0 0 0 0 0 0
          0 0 0 0 0 0
          0 0 0 0 0 0
          0 0 0 0 0 0
          0 0 0 0 0 0
          0 0 0 0 0 0
          0 0 0 0 0 0
          0 0 0 0 0 0
          0 0 0 0 0 0
          0 0 0 0 0 0
          0 0 0 0 0 0
          0 0 0 0 0 0
          0 0 0 0 0 0
          0 0 0 0 0 0
          0 0 0 0 0 0
          0 0 0 0 0 0
          0 0 0 0 0 0
          0 0 0 0 0 0
          0 0 0 0 0 0
          0 0 0 0 0 0
          0 0 0 0 0 0
          0 0 0 0 0 0
          0 0 0 0 0 0
          0 0 0 0 0 0
          0 0 0 0 0 0
          0 0 0 0 0 0
          0 0 0 0 0 0
          0 0 0 0 0 0
          0 0 0 0 0 0
          0 0 0 0 0 0
          0 0 0 0 0 0
          0 0 0 0 0 0
          0 0 0 0 0 0
          0 0 0 0 0 0
          0 0 0 0 0 0
          0 0 0 0 0 0
          0 0 0 0 0 0
          0 0 0 0 0 0
          0 0 0 0 0 0
          0 0 0 0 0 0
          0 0 0 0 0 0
          0 0 0 0 0 0
          0 0 0 0 0 0
          0 0 0 0 0 0
          0 0 0 0 0 0
          0 0 0 0 0 0
          0 0 0 0 0 0
          0 0 0 0 0 0
          0 0 0 0 0 0
          0 0 0 0 0 0
          0 0 0 0 0 0
          0 0 0 0 0 0
          0 0 0 0 0 0
          0 0 0 0 0 0
          0 0 0 0 0 0
          0 0 0 0 0 0
          0 0 0 0 0 0
          0 0 0 0 0 0
          0 0 0 0 0 0
          0 0 0 0 0 0
          0 0 0 0 0 0
          0 0 0 0 0 0
          0 0 0 0 0 0
          0 0 0 0 0 0
          0 0 0 0 0 0
          0 0 0 0 0 0
          0 0 0 0 0 0
          0 0 0 0 0 0
          0 0 0 0 0 0
          0 0 0 0 0 0
          0 0 0 0 0 0
          0 0 0 0 0 0
          0 0 0 0 0 0
          0 0 0 0 0 0
          0 0 0 0 0 0
          0 0 0 0 0 0
          0 0 0 0 0 0
          0 0 0 0 0 0
          0 0 0 0 0 0
          0 0 0 0 0 0
          0 0 0 0 0 0
          0 0 0 0 0 0
          0 0 0 0 0 0
          0 0 0 0 0 0
          0 0 0 0 0 0
          0 0 0 0 0 0
          0 0 0 0 0 0
          0 0 0 0 0 0
          0 0 0 0 0 0
          0 0 0 0 0 0
          0 0 0 0 0 0
          0 0 0 0 0 0
          0 0 0 0 0 0
          0 0 0 0 0 0
          0 0 0 0 0 0
          0 0 0 0 0 0
          0 0 0 0 0 0
          0 0 0 0 0 0
          0 0 0 0 0 0
          0 0 0 0 0 0
          0 0 0 0 0 0
          0 0 0 0 0 0
          0 0 0 0 0 0
          0 0 0 0 0 0
          0 0 0 0 0 0
          0 0 0 0 0 0
          0 0 0 0 0 0
          0 0 0 0 0 0
          0 0 0 0 0 0
          0 0 0 0 0 0
          0 0 0 0 0 0
          0 0 0 0 0 0
          0 0 0 0 0 0
          0 0 0 0 0 0
          0 0 0 0 0 0
          0 0 0 0 0 0
          0 0 0 0 0 0
          0 0 0 0 0 0
          0 0 0 0 0 0
          0 0 0 0 0 0
          0 0 0 0 0 0
          0 0 0 0 0 0
          0 0 0 0 0 0
          0 0 0 0 0 0
          0 0 0 0 0 0
          0 0 0 0 0 0
          0 0 0 0 0 0
          0 0 0 0 0 0
          0 0 0 0 0 0
          0 0 0 0 0 0
          0 0 0 0 0 0
          0 0 0 0 0 0
          0 0 0 0 0 0
          0 0 0 0 0 0
          0 0 0 0 0 0
          0 0 0 0 0 0
          0 0 0 0 0 0
          0 0 0 0 0 0
          0 0 0 0 0 0
          0 0 0 0 0 0
          0 0 0 0 0 0
          0 0 0 0 0 0
          0 0 0 0 0 0
          0 0 0 0 0 0
          0 0 0 0 0 0
          0 0 0 0 0 0
          0 0 0 0 0 0
          0 0 0 0 0 0
          0 0 0 0 0 0
          0 0 0 0 0 0
          0 0 0 0 0 0
          0 0 0 0 0 0
          0 0 0 0 0 0
          0 0 0 0 0 0
          0 0 0 0 0 0
          0 0 0 0 0 0
          0 0 0 0 0 0
          0 0 0 0 0 0
          0 0 0 0 0 0
          0 0 0 0 0 0
          0 0 0 0 0 0
          0 0 0 0 0 0
          0 0 0 0 0 0
          0 0 0 0 0 0
          0 0 0 0 0 0
          0 0 0 0 0 0
          0 0 0 0 0 0
          0 0 0 0 0 0
          0 0 0 0 0 0
          0 0 0 0 0 0
          0 0 0 0 0 0
          0 0 0 0 0 0
          0 0 0 0 0 0
          0 0 0 0 0 0
          0 0 0 0 0 0
          0 0 0 0 0 0
          0 0 0 0 0 0
          0 0 0 0 0 0
          0 0 0 0 0 0
          0 0 0 0 0 0
          0 0 0 0 0 0
          0 0 0 0 0 0
          0 0 0 0 0 0
          0 0 0 0 0 0
          0 0 0 0 0 0
          0 0 0 0 0 0
          0 0 0 0 0 0
          0 0 0 0 0 0
          0 0 0 0 0 0
          0 0 0 0 0 0
          0 0 0 0 0 0
          0 0 0 0 0 0
          0 0 0 0 0 0
          0 0 0 0 0 0
          0 0 0 0 0 0
          0 0 0 0 0 0
          0 0 0 0 0 0
          0 0 0 0 0 0
          0 0 0 0 0 0
          0 0 0 0 0 0
          0 0 0 0 0 0
          0 0 0 0 0 0
          0 0 0 0 0 0
          0 0 0 0 0 0
          0 0 0 0 0 0
          0 0 0 0 0 0
          0 0 0 0 0 0
          0 0 0 0 0 0
          0 0 0 0 0 0
          0 0 0 0 0 0
          0 0 0 0 0 0
          0 0 0 0 0 0
          0 0 0 0 0 0
          0 0 0 0 0 0
          0 0 0 0 0 0
          0 0 0 0 0 0
          0 0 0 0 0 0
          0 0 0 0 0 0
          0 0 0 0 0 0
          0 0 0 0 0 0
          0 0 0 0 0 0
          0 0 0 0 0 0
          0 0 0 0 0 0
          0 0 0 0 0 0
          0 0 0 0 0 0
          0 0 0 0 0 0
          0 0 0 0 0 0
          0 0 0 0 0 0
          0 0 0 0 0 0
          0 0 0 0 0 0
          0 0 0 0 0 0
          0 0 0 0 0 0
          0 0 0 0 0 0
          0 0 0 0 0 0
          0 0 0 0 0 0
          0 0 0 0 0 0
          0 0 0 0 0 0
          0 0 0 0 0 0
          0 0 0 0 0 0
          0 0 0 0 0 0
          0 0 0 0 0 0
          0 0 0 0 0 0
          0 0 0 0 0 0
          0 0 0 0 0 0
          0 0 0 0 0 0
          0 0 0 0 0 0
          0 0 0 0 0 0
          0 0 0 0 0 0
          0 0 0 0 0 0
          0 0 0 0 0 0
          0 0 0 0 0 0
          0 0 0 0 0 0
          0 0 0 0 0 0
          0 0 0 0 0 0
          0 0 0 0 0 0
          0 0 0 0 0 0
          0 0 0 0 0 0
          0 0 0 0 0 0
          0 0 0 0 0 0
          0 0 0 0 0 0
          0 0 0 0 0 0
          0 0 0 0 0 0
          0 0 0 0 0 0
          0 0 0 0 0 0
          0 0 0 0 0 0
          0 0 0 0 0 0
          0 0 0 0 0 0
          0 0 0 0 0 0
          0 0 0 0 0 0
          0 0 0 0 0 0
          0 0 0 0 0 0
          0 0 0 0 0 0
          0 0 0 0 0 0
          0 0 0 0 0 0
          0 0 0 0 0 0
          0 0 0 0 0 0
          0 0 0 0 0 0
          0 0 0 0 0 0
          0 0 0 0 0 0
          0 0 0 0 0 0
          0 0 0 0 0 0
          0 0 0 0 0 0
          0 0 0 0 0 0
          0 0 0 0 0 0
          0 0 0 0 0 0
          0 0 0 0 0 0
          0 0 0 0 0 0
          0 0 0 0 0 0
          0 0 0 0 0 0
          0 0 0 0 0 0
          0 0 0 0 0 0
          0 0 0 0 0 0
          0 0 0 0 0 0
          0 0 0 0 0 0
          0 0 0 0 0 0
          0 0 0 0 0 0
          0 0 0 0 0 0
          0 0 0 0 0 0
          0 0 0 0 0 0
          0 0 0 0 0 0
          0 0 0 0 0 0
          0 0 0 0 0 0
          0 0 0 0 0 0
          0 0 0 0 0 0
          0 0 0 0 0 0
          0 0 0 0 0 0
          0 0 0 0 0 0
          0 0 0 0 0 0
          0 0 0 0 0 0
          0 0 0 0 0 0
          0 0 0 0 0 0
          0 0 0 0 0 0
          0 0 0 0 0 0
          0 0 0 0 0 0
          0 0 0 0 0 0
          0 0 0 0 0 0
          0 0 0 0 0 0
          0 0 0 0 0 0
          0 0 0 0 0 0
          0 0 0 0 0 0
          0 0 0 0 0 0
          0 0 0 0 0 0
          0 0 0 0 0 0
          0 0 0 0 0 0
          0 0 0 0 0 0
          0 0 0 0 0 0
          0 0 0 0 0 0
          0 0 0 0 0 0
          0 0 0 0 0 0
          0 0 0 0 0 0
          0 0 0 0 0 0
          0 0 0 0 0 0
          0 0 0 0 0 0
          0 0 0 0 0 0
          0 0 0 0 0 0
          0 0 0 0 0 0
          0 0 0 0 0 0
          0 0 0 0 0 0
          0 0 0 0 0 0
          0 0 0 0 0 0
          0 0 0 0 0 0
          0 0 0 0 0 0
          0 0 0 0 0 0
          0 0 0 0 0 0
          0 0 0 0 0 0
          0 0 0 0 0 0
          0 0 0 0 0 0
          0 0 0 0 0 0
          0 0 0 0 0 0
          0 0 0 0 0 0
          0 0 0 0 0 0
          0 0 0 0 0 0
          0 0 0 0 0 0
          0 0 0 0 0 0
          0 0 0 0 0 0
          0 0 0 0 0 0
          0 0 0 0 0 0
          0 0 0 0 0 0
          0 0 0 0 0 0
          0 0 0 0 0 0
          0 0 0 0 0 0
          0 0 0 0 0 0
          0 0 0 0 0 0
          0 0 0 0 0 0
          0 0 0 0 0 0
          0 0 0 0 0 0
          0 0 0 0 0 0
          0 0 0 0 0 0
          0 0 0 0 0 0
          0 0 0 0 0 0
          0 0 0 0 0 0
          0 0 0 0 0 0
          0 0 0 0 0 0
          0 0 0 0 0 0
          0 0 0 0 0 0
          0 0 0 0 0 0
          0 0 0 0 0 0
          0 0 0 0 0 0
          0 0 0 0 0 0
          0 0 0 0 0 0
          0 0 0 0 0 0
          0 0 0 0 0 0
          0 0 0 0 0 0
          0 0 0 0 0 0
          0 0 0 0 0 0
          0 0 0 0 0 0
          0 0 0 0 0 0
          0 0 0 0 0 0
          0 0 0 0 0 0
          0 0 0 0 0 0
          0 0 0 0 0 0
          0 0 0 0 0 0
          0 0 0 0 0 0
          0 0 0 0 0 0
          0 0 0 0 0 0
          0 0 0 0 0 0
          0 0 0 0 0 0
          0 0 0 0 0 0
          0 0 0 0 0 0
          0 0 0 0 0 0
          0 0 0 0 0 0
          0 0 0 0 0 0
          0 0 0 0 0 0
          0 0 0 0 0 0
          0 0 0 0 0 0
          0 0 0 0 0 0
          0 0 0 0 0 0
          0 0 0 0 0 0
          0 0 0 0 0 0
          0 0 0 0 0 0
          0 0 0 0 0 0
          0 0 0 0 0 0
          0 0 0 0 0 0
          0 0 0 0 0 0
          0 0 0 0 0 0
          0 0 0 0 0 0
          0 0 0 0 0 0
          0 0 0 0 0 0
          0 0 0 0 0 0
          0 0 0 0 0 0
          0 0 0 0 0 0
          0 0 0 0 0 0
          0 0 0 0 0 0
          0 0 0 0 0 0
          0 0 0 0 0 0
          0 0 0 0 0 0
          0 0 0 0 0 0
          0 0 0 0 0 0
          0 0 0 0 0 0
          0 0 0 0 0 0
          0 0 0 0 0 0
          0 0 0 0 0 0
          0 0 0 0 0 0
          0 0 0 0 0 0
          0 0 0 0 0 0
          0 0 0 0 0 0
          0 0 0 0 0 0
          0 0 0 0 0 0
          0 0 0 0 0 0
          0 0 0 0 0 0
          0 0 0 0 0 0
          0 0 0 0 0 0
          0 0 0 0 0 0
          0 0 0 0 0 0
          0 0 0 0 0 0
          0 0 0 0 0 0
          0 0 0 0 0 0
          0 0 0 0 0 0
          0 0 0 0 0 0
          0 0 0 0 0 0
          0 0 0 0 0 0
          0 0 0 0 0 0
          0 0 0 0 0 0
          0 0 0 0 0 0
          0 0 0 0 0 0
          0 0 0 0 0 0
          0 0 0 0 0 0
          0 0 0 0 0 0
          0 0 0 0 0 0
          0 0 0 0 0 0
          0 0 0 0 0 0
          0 0 0 0 0 0
          0 0 0 0 0 0
          0 0 0 0 0 0
          0 0 0 0 0 0
          0 0 0 0 0 0
          0 0 0 0 0 0
          0 0 0 0 0 0
          0 0 0 0 0 0
          0 0 0 0 0 0
          0 0 0 0 0 0
          0 0 0 0 0 0
          0 0 0 0 0 0
          0 0 0 0 0 0
          0 0 0 0 0 0
          0 0 0 0 0 0
          0 0 0 0 0 0
          0 0 0 0 0 0
          0 0 0 0 0 0
          0 0 0 0 0 0
          0 0 0 0 0 0
          0 0 0 0 0 0
          0 0 0 0 0 0
          0 0 0 0 0 0
          0 0 0 0 0 0
          0 0 0 0 0 0
          0 0 0 0 0 0
          0 0 0 0 0 0
          0 0 0 0 0 0
          0 0 0 0 0 0
          0 0 0 0 0 0
          0 0 0 0 0 0
          0 0 0 0 0 0
          0 0 0 0 0 0
          0 0 0 0 0 0
          0 0 0 0 0 0
          0 0 0 0 0 0
          0 0 0 0 0 0
          0 0 0 0 0 0
          0 0 0 0 0 0
          0 0 0 0 0 0
          0 0 0 0 0 0
          0 0 0 0 0 0
          0 0 0 0 0 0
          0 0 0 0 0 0
          0 0 0 0 0 0
          0 0 0 0 0 0
          0 0 0 0 0 0
          0 0 0 0 0 0
          0 0 0 0 0 0
          0 0 0 0 0 0
          0 0 0 0 0 0
          0 0 0 0 0 0
          0 0 0 0 0 0
          0 0 0 0 0 0
          0 0 0 0 0 0
          0 0 0 0 0 0
          0 0 0 0 0 0
          0 0 0 0 0 0
          0 0 0 0 0 0
          0 0 0 0 0 0
          0 0 0 0 0 0
          0 0 0 0 0 0
          0 0 0 0 0 0
          0 0 0 0 0 0
          0 0 0 0 0 0
          0 0 0 0 0 0
          0 0 0 0 0 0
          0 0 0 0 0 0
          0 0 0 0 0 0
          0 0 0 0 0 0
          0 0 0 0 0 0
          0 0 0 0 0 0
          0 0 0 0 0 0
          0 0 0 0 0 0
          0 0 0 0 0 0
          0 0 0 0 0 0
          0 0 0 0 0 0
          0 0 0 0 0 0
          0 0 0 0 0 0
          0 0 0 0 0 0
          0 0 0 0 0 0
          0 0 0 0 0 0
          0 0 0 0 0 0
          0 0 0 0 0 0
          0 0 0 0 0 0
          0 0 0 0 0 0
          0 0 0 0 0 0
          0 0 0 0 0 0
          0 0 0 0 0 0
          0 0 0 0 0 0
          0 0 0 0 0 0
          0 0 0 0 0 0
          0 0 0 0 0 0
          0 0 0 0 0 0
          0 0 0 0 0 0
          0 0 0 0 0 0
          0 0 0 0 0 0
          0 0 0 0 0 0
          0 0 0 0 0 0
          0 0 0 0 0 0
          0 0 0 0 0 0
          0 0 0 0 0 0
          0 0 0 0 0 0
          0 0 0 0 0 0
          0 0 0 0 0 0
          0 0 0 0 0 0
          0 0 0 0 0 0
          0 0 0 0 0 0
          0 0 0 0 0 0
          0 0 0 0 0 0
          0 0 0 0 0 0
          0 0 0 0 0 0
          0 0 0 0 0 0
          0 0 0 0 0 0
          0 0 0 0 0 0
          0 0 0 0 0 0
          0 0 0 0 0 0
          0 0 0 0 0 0
          0 0 0 0 0 0
          0 0 0 0 0 0
          0 0 0 0 0 0
          0 0 0 0 0 0
          0 0 0 0 0 0
          0 0 0 0 0 0
          0 0 0 0 0 0
          0 0 0 0 0 0
          0 0 0 0 0 0
          0 0 0 0 0 0
          0 0 0 0 0 0
          0 0 0 0 0 0
          0 0 0 0 0 0
          0 0 0 0 0 0
          0 0 0 0 0 0
          0 0 0 0 0 0
          0 0 0 0 0 0
          0 0 0 0 0 0
          0 0 0 0 0 0
          0 0 0 0 0 0
          0 0 0 0 0 0
          0 0 0 0 0 0
          0 0 0 0 0 0
          0 0 0 0 0 0
          0 0 0 0 0 0
          0 0 0 0 0 0
          0 0 0 0 0 0
          0 0 0 0 0 0
          0 0 0 0 0 0
          0 0 0 0 0 0
          0 0 0 0 0 0
          0 0 0 0 0 0
          0 0 0 0 0 0
          0 0 0 0 0 0
          0 0 0 0 0 0
          0 0 0 0 0 0
          0 0 0 0 0 0
          0 0 0 0 0 0
          0 0 0 0 0 0
          0 0 0 0 0 0
          0 0 0 0 0 0
          0 0 0 0 0 0
          0 0 0 0 0 0
          0 0 0 0 0 0
          0 0 0 0 0 0
          0 0 0 0 0 0
          0 0 0 0 0 0
          0 0 0 0 0 0
          0 0 0 0 0 0
          0 0 0 0 0 0
          0 0 0 0 0 0
          0 0 0 0 0 0
          0 0 0 0 0 0
          0 0 0 0 0 0
          0 0 0 0 0 0
          0 0 0 0 0 0
          0 0 0 0 0 0
          0 0 0 0 0 0
          0 0 0 0 0 0
          0 0 0 0 0 0
          0 0 0 0 0 0
          0 0 0 0 0 0
          0 0 0 0 0 0
          0 0 0 0 0 0
          0 0 0 0 0 0
          0 0 0 0 0 0
          0 0 0 0 0 0
          0 0 0 0 0 0
          0 0 0 0 0 0
          0 0 0 0 0 0
          0 0 0 0 0 0
          0 0 0 0 0 0
          0 0 0 0 0 0
          0 0 0 0 0 0
          0 0 0 0 0 0
          0 0 0 0 0 0
          0 0 0 0 0 0
          0 0 0 0 0 0
          0 0 0 0 0 0
          0 0 0 0 0 0
          0 0 0 0 0 0
          0 0 0 0 0 0
          0 0 0 0 0 0
          0 0 0 0 0 0
          0 0 0 0 0 0
          0 0 0 0 0 0
          0 0 0 0 0 0
          0 0 0 0 0 0
          0 0 0 0 0 0
          0 0 0 0 0 0
          0 0 0 0 0 0
          0 0 0 0 0 0
          0 0 0 0 0 0
          0 0 0 0 0 0
          0 0 0 0 0 0
          0 0 0 0 0 0
          0 0 0 0 0 0
          0 0 0 0 0 0
          0 0 0 0 0 0
          0 0 0 0 0 0
          0 0 0 0 0 0
          0 0 0 0 0 0
          0 0 0 0 0 0
          0 0 0 0 0 0
          0 0 0 0 0 0
          0 0 0 0 0 0
          0 0 0 0 0 0
          0 0 0 0 0 0
          0 0 0 0 0 0
          0 0 0 0 0 0
          0 0 0 0 0 0
          0 0 0 0 0 0
          0 0 0 0 0 0
          0 0 0 0 0 0
          0 0 0 0 0 0
          0 0 0 0 0 0
          0 0 0 0 0 0
          0 0 0 0 0 0
          0 0 0 0 0 0
          0 0 0 0 0 0
          0 0 0 0 0 0
          0 0 0 0 0 0
          0 0 0 0 0 0
          0 0 0 0 0 0
          0 0 0 0 0 0
          0 0 0 0 0 0
          0 0 0 0 0 0
          0 0 0 0 0 0
          0 0 0 0 0 0
          0 0 0 0 0 0
          0 0 0 0 0 0
          0 0 0 0 0 0
          0 0 0 0 0 0
          0 0 0 0 0 0
          0 0 0 0 0 0
          0 0 0 0 0 0
          0 0 0 0 0 0
          0 0 0 0 0 0
          0 0 0 0 0 0
          0 0 0 0 0 0
          0 0 0 0 0 0
          0 0 0 0 0 0
          0 0 0 0 0 0
          0 0 0 0 0 0
          0 0 0 0 0 0
          0 0 0 0 0 0
          0 0 0 0 0 0
          0 0 0 0 0 0
          0 0 0 0 0 0
          0 0 0 0 0 0
          0 0 0 0 0 0
          0 0 0 0 0 0
          0 0 0 0 0 0
          0 0 0 0 0 0
          0 0 0 0 0 0
          0 0 0 0 0 0
          0 0 0 0 0 0
          0 0 0 0 0 0
          0 0 0 0 0 0
          0 0 0 0 0 0
          0 0 0 0 0 0
          0 0 0 0 0 0
          0 0 0 0 0 0
          0 0 0 0 0 0
          0 0 0 0 0 0
          0 0 0 0 0 0
          0 0 0 0 0 0
          0 0 0 0 0 0
          0 0 0 0 0 0
          0 0 0 0 0 0
          0 0 0 0 0 0
          0 0 0 0 0 0
          0 0 0 0 0 0
          0 0 0 0 0 0
          0 0 0 0 0 0
          0 0 0 0 0 0
          0 0 0 0 0 0
          0 0 0 0 0 0
          0 0 0 0 0 0
          0 0 0 0 0 0
          0 0 0 0 0 0
          0 0 0 0 0 0
          0 0 0 0 0 0
          0 0 0 0 0 0
          0 0 0 0 0 0
          0 0 0 0 0 0
          0 0 0 0 0 0
          0 0 0 0 0 0
          0 0 0 0 0 0
          0 0 0 0 0 0
          0 0 0 0 0 0
          0 0 0 0 0 0
          0 0 0 0 0 0
          0 0 0 0 0 0
          0 0 0 0 0 0
          0 0 0 0 0 0
          0 0 0 0 0 0
          0 0 0 0 0 0
          0 0 0 0 0 0
          0 0 0 0 0 0
          0 0 0 0 0 0
          0 0 0 0 0 0
          0 0 0 0 0 0
          0 0 0 0 0 0
          0 0 0 0 0 0
          0 0 0 0 0 0
          0 0 0 0 0 0
          0 0 0 0 0 0
          0 0 0 0 0 0
          0 0 0 0 0 0
          0 0 0 0 0 0
          0 0 0 0 0 0
          0 0 0 0 0 0
          0 0 0 0 0 0
          0 0 0 0 0 0
          0 0 0 0 0 0
          0 0 0 0 0 0
          0 0 0 0 0 0
          0 0 0 0 0 0
          0 0 0 0 0 0
          0 0 0 0 0 0
          0 0 0 0 0 0
          0 0 0 0 0 0
          0 0 0 0 0 0
          0 0 0 0 0 0
          0 0 0 0 0 0
          0 0 0 0 0 0
          0 0 0 0 0 0
          0 0 0 0 0 0
          0 0 0 0 0 0
          0 0 0 0 0 0
          0 0 0 0 0 0
          0 0 0 0 0 0
          0 0 0 0 0 0
          0 0 0 0 0 0
          0 0 0 0 0 0
          0 0 0 0 0 0
          0 0 0 0 0 0
          0 0 0 0 0 0
          0 0 0 0 0 0
          0 0 0 0 0 0
          0 0 0 0 0 0
          0 0 0 0 0 0
          0 0 0 0 0 0
          0 0 0 0 0 0
          0 0 0 0 0 0
          0 0 0 0 0 0
          0 0 0 0 0 0
          0 0 0 0 0 0
          0 0 0 0 0 0
          0 0 0 0 0 0
          0 0 0 0 0 0
          0 0 0 0 0 0
          0 0 0 0 0 0
          0 0 0 0 0 0
          0 0 0 0 0 0
          0 0 0 0 0 0
          0 0 0 0 0 0
          0 0 0 0 0 0
          0 0 0 0 0 0
          0 0 0 0 0 0
          0 0 0 0 0 0
          0 0 0 0 0 0
          0 0 0 0 0 0
          0 0 0 0 0 0
          0 0 0 0 0 0
          0 0 0 0 0 0
          0 0 0 0 0 0
          0 0 0 0 0 0
          0 0 0 0 0 0
          0 0 0 0 0 0
          0 0 0 0 0 0
          0 0 0 0 0 0
          0 0 0 0 0 0
          0 0 0 0 0 0
          0 0 0 0 0 0
          0 0 0 0 0 0
          0 0 0 0 0 0
          0 0 0 0 0 0
          0 0 0 0 0 0
          0 0 0 0 0 0
          0 0 0 0 0 0
          0 0 0 0 0 0
          0 0 0 0 0 0
          0 0 0 0 0 0
          0 0 0 0 0 0
          0 0 0 0 0 0
          0 0 0 0 0 0
          0 0 0 0 0 0
          0 0 0 0 0 0
          0 0 0 0 0 0
          0 0 0 0 0 0
          0 0 0 0 0 0
          0 0 0 0 0 0
          0 0 0 0 0 0
          0 0 0 0 0 0
          0 0 0 0 0 0
          0 0 0 0 0 0
          0 0 0 0 0 0
          0 0 0 0 0 0
          0 0 0 0 0 0
          0 0 0 0 0 0
          0 0 0 0 0 0
          0 0 0 0 0 0
          0 0 0 0 0 0
          0 0 0 0 0 0
          0 0 0 0 0 0
          0 0 0 0 0 0
          0 0 0 0 0 0
          0 0 0 0 0 0
          0 0 0 0 0 0
          0 0 0 0 0 0
          0 0 0 0 0 0
          0 0 0 0 0 0
          0 0 0 0 0 0
          0 0 0 0 0 0
          0 0 0 0 0 0
          0 0 0 0 0 0
          0 0 0 0 0 0
          0 0 0 0 0 0
          0 0 0 0 0 0
          0 0 0 0 0 0
          0 0 0 0 0 0
          0 0 0 0 0 0
          0 0 0 0 0 0
          0 0 0 0 0 0
          0 0 0 0 0 0
          0 0 0 0 0 0
          0 0 0 0 0 0
          0 0 0 0 0 0
          0 0 0 0 0 0
          0 0 0 0 0 0
          0 0 0 0 0 0
          0 0 0 0 0 0
          0 0 0 0 0 0
          0 0 0 0 0 0
          0 0 0 0 0 0
          0 0 0 0 0 0
          0 0 0 0 0 0
          0 0 0 0 0 0
          0 0 0 0 0 0
          0 0 0 0 0 0
          0 0 0 0 0 0
          0 0 0 0 0 0
          0 0 0 0 0 0
          0 0 0 0 0 0
          0 0 0 0 0 0
          0 0 0 0 0 0
          0 0 0 0 0 0
          0 0 0 0 0 0
          0 0 0 0 0 0
          0 0 0 0 0 0
          0 0 0 0 0 0
          0 0 0 0 0 0
          0 0 0 0 0 0
          0 0 0 0 0 0
          0 0 0 0 0 0
          0 0 0 0 0 0
          0 0 0 0 0 0
          0 0 0 0 0 0
          0 0 0 0 0 0
          0 0 0 0 0 0
          0 0 0 0 0 0
          0 0 0 0 0 0
          0 0 0 0 0 0
          0 0 0 0 0 0
          0 0 0 0 0 0
          0 0 0 0 0 0
          0 0 0 0 0 0
          0 0 0 0 0 0
          0 0 0 0 0 0
          0 0 0 0 0 0
          0 0 0 0 0 0
          0 0 0 0 0 0
          0 0 0 0 0 0
          0 0 0 0 0 0
          0 0 0 0 0 0
          0 0 0 0 0 0
          0 0 0 0 0 0
          0 0 0 0 0 0
          0 0 0 0 0 0
          0 0 0 0 0 0
          0 0 0 0 0 0
          0 0 0 0 0 0
          0 0 0 0 0 0
          0 0 0 0 0 0
          0 0 0 0 0 0
          0 0 0 0 0 0
          0 0 0 0 0 0
          0 0 0 0 0 0
          0 0 0 0 0 0
          0 0 0 0 0 0
          0 0 0 0 0 0
          0 0 0 0 0 0
          0 0 0 0 0 0
          0 0 0 0 0 0
          0 0 0 0 0 0
          0 0 0 0 0 0
          0 0 0 0 0 0
          0 0 0 0 0 0
          0 0 0 0 0 0
          0 0 0 0 0 0
          0 0 0 0 0 0
          0 0 0 0 0 0
          0 0 0 0 0 0
          0 0 0 0 0 0
          0 0 0 0 0 0
          0 0 0 0 0 0
          0 0 0 0 0 0
          0 0 0 0 0 0
          0 0 0 0 0 0
          0 0 0 0 0 0
          0 0 0 0 0 0
          0 0 0 0 0 0
          0 0 0 0 0 0
          0 0 0 0 0 0
          0 0 0 0 0 0
          0 0 0 0 0 0
          0 0 0 0 0 0
          0 0 0 0 0 0
          0 0 0 0 0 0
          0 0 0 0 0 0
          0 0 0 0 0 0
          0 0 0 0 0 0
          0 0 0 0 0 0
          0 0 0 0 0 0
          0 0 0 0 0 0
          0 0 0 0 0 0
          0 0 0 0 0 0
          0 0 0 0 0 0
          0 0 0 0 0 0
          0 0 0 0 0 0
          0 0 0 0 0 0
          0 0 0 0 0 0
          0 0 0 0 0 0
          0 0 0 0 0 0
          0 0 0 0 0 0
          0 0 0 0 0 0
          0 0 0 0 0 0
          0 0 0 0 0 0
          0 0 0 0 0 0
          0 0 0 0 0 0
          0 0 0 0 0 0
          0 0 0 0 0 0
          0 0 0 0 0 0
          0 0 0 0 0 0
          0 0 0 0 0 0
          0 0 0 0 0 0
          0 0 0 0 0 0
          0 0 0 0 0 0
          0 0 0 0 0 0
          0 0 0 0 0 0
          0 0 0 0 0 0
          0 0 0 0 0 0
          0 0 0 0 0 0
          0 0 0 0 0 0
          0 0 0 0 0 0
          0 0 0 0 0 0
          0 0 0 0 0 0
          0 0 0 0 0 0
          0 0 0 0 0 0
          0 0 0 0 0 0
          0 0 0 0 0 0
          0 0 0 0 0 0
          0 0 0 0 0 0
          0 0 0 0 0 0
          0 0 0 0 0 0
          0 0 0 0 0 0
          0 0 0 0 0 0
          0 0 0 0 0 0
          0 0 0 0 0 0
          0 0 0 0 0 0
          0 0 0 0 0 0
          0 0 0 0 0 0
          0 0 0 0 0 0
          0 0 0 0 0 0
          0 0 0 0 0 0
          0 0 0 0 0 0
          0 0 0 0 0 0
          0 0 0 0 0 0
          0 0 0 0 0 0
          0 0 0 0 0 0
          0 0 0 0 0 0
          0 0 0 0 0 0
          0 0 0 0 0 0
          0 0 0 0 0 0
          0 0 0 0 0 0
          0 0 0 0 0 0
          0 0 0 0 0 0
          0 0 0 0 0 0
          0 0 0 0 0 0
          0 0 0 0 0 0
          0 0 0 0 0 0
          0 0 0 0 0 0
          0 0 0 0 0 0
          0 0 0 0 0 0
          0 0 0 0 0 0
          0 0 0 0 0 0
          0 0 0 0 0 0
          0 0 0 0 0 0
          0 0 0 0 0 0
          0 0 0 0 0 0
          0 0 0 0 0 0
          0 0 0 0 0 0
          0 0 0 0 0 0
          0 0 0 0 0 0
          0 0 0 0 0 0
          0 0 0 0 0 0
          0 0 0 0 0 0
          0 0 0 0 0 0
          0 0 0 0 0 0
          0 0 0 0 0 0
          0 0 0 0 0 0
          0 0 0 0 0 0
          0 0 0 0 0 0
          0 0 0 0 0 0
          0 0 0 0 0 0
          0 0 0 0 0 0
          0 0 0 0 0 0
          0 0 0 0 0 0
          0 0 0 0 0 0
          0 0 0 0 0 0
          0 0 0 0 0 0
          0 0 0 0 0 0
          0 0 0 0 0 0
          0 0 0 0 0 0
          0 0 0 0 0 0
          0 0 0 0 0 0
          0 0 0 0 0 0
          0 0 0 0 0 0
          0 0 0 0 0 0
          0 0 0 0 0 0
          0 0 0 0 0 0
          0 0 0 0 0 0
          0 0 0 0 0 0
          0 0 0 0 0 0
          0 0 0 0 0 0
          0 0 0 0 0 0
          0 0 0 0 0 0
          0 0 0 0 0 0
          0 0 0 0 0 0
          0 0 0 0 0 0
          0 0 0 0 0 0
          0 0 0 0 0 0
          0 0 0 0 0 0
          0 0 0 0 0 0
          0 0 0 0 0 0
          0 0 0 0 0 0
          0 0 0 0 0 0
          0 0 0 0 0 0
          0 0 0 0 0 0
          0 0 0 0 0 0
          0 0 0 0 0 0
          0 0 0 0 0 0
          0 0 0 0 0 0
          0 0 0 0 0 0
          0 0 0 0 0 0
          0 0 0 0 0 0
          0 0 0 0 0 0
          0 0 0 0 0 0
          0 0 0 0 0 0
          0 0 0 0 0 0
          0 0 0 0 0 0
          0 0 0 0 0 0
          0 0 0 0 0 0
          0 0 0 0 0 0
          0 0 0 0 0 0
          0 0 0 0 0 0
          0 0 0 0 0 0
          0 0 0 0 0 0
          0 0 0 0 0 0
          0 0 0 0 0 0
          0 0 0 0 0 0
          0 0 0 0 0 0
          0 0 0 0 0 0
          0 0 0 0 0 0
          0 0 0 0 0 0
          0 0 0 0 0 0
          0 0 0 0 0 0
          0 0 0 0 0 0
          0 0 0 0 0 0
          0 0 0 0 0 0
          0 0 0 0 0 0
          0 0 0 0 0 0
          0 0 0 0 0 0
          0 0 0 0 0 0
          0 0 0 0 0 0
          0 0 0 0 0 0
          0 0 0 0 0 0
          0 0 0 0 0 0
          0 0 0 0 0 0
          0 0 0 0 0 0
          0 0 0 0 0 0
          0 0 0 0 0 0
          0 0 0 0 0 0
          0 0 0 0 0 0
          0 0 0 0 0 0
          0 0 0 0 0 0
          0 0 0 0 0 0
          0 0 0 0 0 0
          0 0 0 0 0 0
          0 0 0 0 0 0
          0 0 0 0 0 0
          0 0 0 0 0 0
          0 0 0 0 0 0
          0 0 0 0 0 0
          0 0 0 0 0 0
          0 0 0 0 0 0
          0 0 0 0 0 0
          0 0 0 0 0 0
          0 0 0 0 0 0
          0 0 0 0 0 0
          0 0 0 0 0 0
          0 0 0 0 0 0
          0 0 0 0 0 0
          0 0 0 0 0 0
          0 0 0 0 0 0
          0 0 0 0 0 0
          0 0 0 0 0 0
          0 0 0 0 0 0
          0 0 0 0 0 0
          0 0 0 0 0 0
          0 0 0 0 0 0
          0 0 0 0 0 0
          0 0 0 0 0 0
          0 0 0 0 0 0
          0 0 0 0 0 0
          0 0 0 0 0 0
          0 0 0 0 0 0
          0 0 0 0 0 0
          0 0 0 0 0 0
          0 0 0 0 0 0
          0 0 0 0 0 0
          0 0 0 0 0 0
          0 0 0 0 0 0
          0 0 0 0 0 0
          0 0 0 0 0 0
          0 0 0 0 0 0
          0 0 0 0 0 0
          0 0 0 0 0 0
          0 0 0 0 0 0
          0 0 0 0 0 0
          0 0 0 0 0 0
          0 0 0 0 0 0
          0 0 0 0 0 0
          0 0 0 0 0 0
          0 0 0 0 0 0
          0 0 0 0 0 0
          0 0 0 0 0 0
          0 0 0 0 0 0
          0 0 0 0 0 0
          0 0 0 0 0 0
          0 0 0 0 0 0
          0 0 0 0 0 0
          0 0 0 0 0 0
          0 0 0 0 0 0
          0 0 0 0 0 0
          0 0 0 0 0 0
          0 0 0 0 0 0
          0 0 0 0 0 0
          0 0 0 0 0 0
          0 0 0 0 0 0
          0 0 0 0 0 0
          0 0 0 0 0 0
          0 0 0 0 0 0
          0 0 0 0 0 0
          0 0 0 0 0 0
          0 0 0 0 0 0
          0 0 0 0 0 0
          0 0 0 0 0 0
          0 0 0 0 0 0
          0 0 0 0 0 0
          0 0 0 0 0 0
          0 0 0 0 0 0
          0 0 0 0 0 0
          0 0 0 0 0 0
          0 0 0 0 0 0
          0 0 0 0 0 0
          0 0 0 0 0 0
          0 0 0 0 0 0
          0 0 0 0 0 0
          0 0 0 0 0 0
          0 0 0 0 0 0
          0 0 0 0 0 0
          0 0 0 0 0 0
          0 0 0 0 0 0
          0 0 0 0 0 0
          0 0 0 0 0 0
          0 0 0 0 0 0
          0 0 0 0 0 0
          0 0 0 0 0 0
          0 0 0 0 0 0
          0 0 0 0 0 0
          0 0 0 0 0 0
          0 0 0 0 0 0
          0 0 0 0 0 0
          0 0 0 0 0 0
          0 0 0 0 0 0
          0 0 0 0 0 0
          0 0 0 0 0 0
          0 0 0 0 0 0
          0 0 0 0 0 0
          0 0 0 0 0 0
          0 0 0 0 0 0
          0 0 0 0 0 0
          0 0 0 0 0 0
          0 0 0 0 0 0
          0 0 0 0 0 0
          0 0 0 0 0 0
          0 0 0 0 0 0
          0 0 0 0 0 0
          0 0 0 0 0 0
          0 0 0 0 0 0
          0 0 0 0 0 0
          0 0 0 0 0 0
          0 0 0 0 0 0
          0 0 0 0 0 0
          0 0 0 0 0 0
          0 0 0 0 0 0
          0 0 0 0 0 0
          0 0 0 0 0 0
          0 0 0 0 0 0
          0 0 0 0 0 0
          0 0 0 0 0 0
          0 0 0 0 0 0
          0 0 0 0 0 0
          0 0 0 0 0 0
          0 0 0 0 0 0
          0 0 0 0 0 0
          0 0 0 0 0 0
          0 0 0 0 0 0
          0 0 0 0 0 0
          0 0 0 0 0 0
          0 0 0 0 0 0
          0 0 0 0 0 0
          0 0 0 0 0 0
          0 0 0 0 0 0
          0 0 0 0 0 0
          0 0 0 0 0 0
          0 0 0 0 0 0
          0 0 0 0 0 0
          0 0 0 0 0 0
          0 0 0 0 0 0
          0 0 0 0 0 0
          0 0 0 0 0 0
          0 0 0 0 0 0
          0 0 0 0 0 0
          0 0 0 0 0 0
          0 0 0 0 0 0
          0 0 0 0 0 0
          0 0 0 0 0 0
          0 0 0 0 0 0
          0 0 0 0 0 0
          0 0 0 0 0 0
          0 0 0 0 0 0
          0 0 0 0 0 0
          0 0 0 0 0 0
          0 0 0 0 0 0
          0 0 0 0 0 0
          0 0 0 0 0 0
          0 0 0 0 0 0
          0 0 0 0 0 0
          0 0 0 0 0 0
          0 0 0 0 0 0
          0 0 0 0 0 0
          0 0 0 0 0 0
          0 0 0 0 0 0
          0 0 0 0 0 0
          0 0 0 0 0 0
          0 0 0 0 0 0
          0 0 0 0 0 0
          0 0 0 0 0 0
          0 0 0 0 0 0
          0 0 0 0 0 0
          0 0 0 0 0 0
          0 0 0 0 0 0
          0 0 0 0 0 0
          0 0 0 0 0 0
          0 0 0 0 0 0
          0 0 0 0 0 0
          0 0 0 0 0 0
          0 0 0 0 0 0
          0 0 0 0 0 0
          0 0 0 0 0 0
          0 0 0 0 0 0
          0 0 0 0 0 0
          0 0 0 0 0 0
          0 0 0 0 0 0
          0 0 0 0 0 0
          0 0 0 0 0 0
          0 0 0 0 0 0
          0 0 0 0 0 0
          0 0 0 0 0 0
          0 0 0 0 0 0
          0 0 0 0 0 0
          0 0 0 0 0 0
          0 0 0 0 0 0
          0 0 0 0 0 0
          0 0 0 0 0 0
          0 0 0 0 0 0
          0 0 0 0 0 0
          0 0 0 0 0 0
          0 0 0 0 0 0
          0 0 0 0 0 0
          0 0 0 0 0 0
          0 0 0 0 0 0
          0 0 0 0 0 0
          0 0 0 0 0 0
          0 0 0 0 0 0
          0 0 0 0 0 0
          0 0 0 0 0 0
          0 0 0 0 0 0
          0 0 0 0 0 0
          0 0 0 0 0 0
          0 0 0 0 0 0
          0 0 0 0 0 0
          0 0 0 0 0 0
          0 0 0 0 0 0
          0 0 0 0 0 0
          0 0 0 0 0 0
          0 0 0 0 0 0
          0 0 0 0 0 0
          0 0 0 0 0 0
          0 0 0 0 0 0
          0 0 0 0 0 0
          0 0 0 0 0 0
          0 0 0 0 0 0
          0 0 0 0 0 0
          0 0 0 0 0 0
          0 0 0 0 0 0
          0 0 0 0 0 0
          0 0 0 0 0 0
          0 0 0 0 0 0
          0 0 0 0 0 0
          0 0 0 0 0 0
          0 0 0 0 0 0
          0 0 0 0 0 0
          0 0 0 0 0 0
          0 0 0 0 0 0
          0 0 0 0 0 0
          0 0 0 0 0 0
          0 0 0 0 0 0
          0 0 0 0 0 0
          0 0 0 0 0 0
          0 0 0 0 0 0
          0 0 0 0 0 0
          0 0 0 0 0 0
          0 0 0 0 0 0
          0 0 0 0 0 0
          0 0 0 0 0 0
          0 0 0 0 0 0
          0 0 0 0 0 0
          0 0 0 0 0 0
          0 0 0 0 0 0
          0 0 0 0 0 0
          0 0 0 0 0 0
          0 0 0 0 0 0
          0 0 0 0 0 0
          0 0 0 0 0 0
          0 0 0 0 0 0
          0 0 0 0 0 0
          0 0 0 0 0 0
          0 0 0 0 0 0
          0 0 0 0 0 0
          0 0 0 0 0 0
          0 0 0 0 0 0
          0 0 0 0 0 0
          0 0 0 0 0 0
          0 0 0 0 0 0
          0 0 0 0 0 0
          0 0 0 0 0 0
          0 0 0 0 0 0
          0 0 0 0 0 0
          0 0 0 0 0 0
          0 0 0 0 0 0
          0 0 0 0 0 0
          0 0 0 0 0 0
          0 0 0 0 0 0
          0 0 0 0 0 0
          0 0 0 0 0 0
          0 0 0 0 0 0
          0 0 0 0 0 0
          0 0 0 0 0 0
          0 0 0 0 0 0
          0 0 0 0 0 0
          0 0 0 0 0 0
          0 0 0 0 0 0
          0 0 0 0 0 0
          0 0 0 0 0 0
          0 0 0 0 0 0
          0 0 0 0 0 0
          0 0 0 0 0 0
          0 0 0 0 0 0
          0 0 0 0 0 0
          0 0 0 0 0 0
          0 0 0 0 0 0
          0 0 0 0 0 0
          0 0 0 0 0 0
          0 0 0 0 0 0
          0 0 0 0 0 0
          0 0 0 0 0 0
          0 0 0 0 0 0
          0 0 0 0 0 0
          0 0 0 0 0 0
          0 0 0 0 0 0
          0 0 0 0 0 0
          0 0 0 0 0 0
          0 0 0 0 0 0
          0 0 0 0 0 0
          0 0 0 0 0 0
          0 0 0 0 0 0
          0 0 0 0 0 0
          0 0 0 0 0 0
          0 0 0 0 0 0
          0 0 0 0 0 0
          0 0 0 0 0 0
          0 0 0 0 0 0
          0 0 0 0 0 0
          0 0 0 0 0 0
          0 0 0 0 0 0
          0 0 0 0 0 0
          0 0 0 0 0 0
          0 0 0 0 0 0
          0 0 0 0 0 0
          0 0 0 0 0 0
          0 0 0 0 0 0
          0 0 0 0 0 0
          0 0 0 0 0 0
          0 0 0 0 0 0
          0 0 0 0 0 0
          0 0 0 0 0 0
          0 0 0 0 0 0
          0 0 0 0 0 0
          0 0 0 0 0 0
          0 0 0 0 0 0
          0 0 0 0 0 0
          0 0 0 0 0 0
          0 0 0 0 0 0
          0 0 0 0 0 0
          0 0 0 0 0 0
          0 0 0 0 0 0
          0 0 0 0 0 0
          0 0 0 0 0 0
          0 0 0 0 0 0
          0 0 0 0 0 0
          0 0 0 0 0 0
          0 0 0 0 0 0
          0 0 0 0 0 0
          0 0 0 0 0 0
          0 0 0 0 0 0
          0 0 0 0 0 0
          0 0 0 0 0 0
          0 0 0 0 0 0
          0 0 0 0 0 0
          0 0 0 0 0 0
          0 0 0 0 0 0
          0 0 0 0 0 0
          0 0 0 0 0 0
          0 0 0 0 0 0
          0 0 0 0 0 0
          0 0 0 0 0 0
          0 0 0 0 0 0
          0 0 0 0 0 0
          0 0 0 0 0 0
          0 0 0 0 0 0
          0 0 0 0 0 0
          0 0 0 0 0 0
          0 0 0 0 0 0
          0 0 0 0 0 0
          0 0 0 0 0 0
          0 0 0 0 0 0
          0 0 0 0 0 0
          0 0 0 0 0 0
          0 0 0 0 0 0
          0 0 0 0 0 0
          0 0 0 0 0 0
          0 0 0 0 0 0
          0 0 0 0 0 0
          0 0 0 0 0 0
          0 0 0 0 0 0
          0 0 0 0 0 0
          0 0 0 0 0 0
          0 0 0 0 0 0
          0 0 0 0 0 0
          0 0 0 0 0 0
          0 0 0 0 0 0
          0 0 0 0 0 0
          0 0 0 0 0 0
          0 0 0 0 0 0
          0 0 0 0 0 0
          0 0 0 0 0 0
          0 0 0 0 0 0
          0 0 0 0 0 0
          0 0 0 0 0 0
          0 0 0 0 0 0
          0 0 0 0 0 0
          0 0 0 0 0 0
          0 0 0 0 0 0
          0 0 0 0 0 0
          0 0 0 0 0 0
          0 0 0 0 0 0
          0 0 0 0 0 0
          0 0 0 0 0 0
          0 0 0 0 0 0
          0 0 0 0 0 0
          0 0 0 0 0 0
          0 0 0 0 0 0
          0 0 0 0 0 0
          0 0 0 0 0 0
          0 0 0 0 0 0
          0 0 0 0 0 0
          0 0 0 0 0 0
          0 0 0 0 0 0
          0 0 0 0 0 0
          0 0 0 0 0 0
          0 0 0 0 0 0
          0 0 0 0 0 0
          0 0 0 0 0 0
          0 0 0 0 0 0
          0 0 0 0 0 0
          0 0 0 0 0 0
          0 0 0 0 0 0
          0 0 0 0 0 0
          0 0 0 0 0 0
          0 0 0 0 0 0
          0 0 0 0 0 0
          0 0 0 0 0 0
          0 0 0 0 0 0
          0 0 0 0 0 0
          0 0 0 0 0 0
          0 0 0 0 0 0
          0 0 0 0 0 0
          0 0 0 0 0 0
          0 0 0 0 0 0
          0 0 0 0 0 0
          0 0 0 0 0 0
          0 0 0 0 0 0
          0 0 0 0 0 0
          0 0 0 0 0 0
          0 0 0 0 0 0
          0 0 0 0 0 0
          0 0 0 0 0 0
          0 0 0 0 0 0
          0 0 0 0 0 0
          0 0 0 0 0 0
          0 0 0 0 0 0
          0 0 0 0 0 0
          0 0 0 0 0 0
          0 0 0 0 0 0
          0 0 0 0 0 0
          0 0 0 0 0 0
          0 0 0 0 0 0
          0 0 0 0 0 0
          0 0 0 0 0 0
          0 0 0 0 0 0
          0 0 0 0 0 0
          0 0 0 0 0 0
          0 0 0 0 0 0
          0 0 0 0 0 0
          0 0 0 0 0 0
          0 0 0 0 0 0
          0 0 0 0 0 0
          0 0 0 0 0 0
          0 0 0 0 0 0
          0 0 0 0 0 0
          0 0 0 0 0 0
          0 0 0 0 0 0
          0 0 0 0 0 0
          0 0 0 0 0 0
          0 0 0 0 0 0
          0 0 0 0 0 0
          0 0 0 0 0 0
          0 0 0 0 0 0
          0 0 0 0 0 0
          0 0 0 0 0 0
          0 0 0 0 0 0
          0 0 0 0 0 0
          0 0 0 0 0 0
          0 0 0 0 0 0
          0 0 0 0 0 0
          0 0 0 0 0 0
          0 0 0 0 0 0
          0 0 0 0 0 0
          0 0 0 0 0 0
          0 0 0 0 0 0
          0 0 0 0 0 0
          0 0 0 0 0 0
          0 0 0 0 0 0
          0 0 0 0 0 0
          0 0 0 0 0 0
          0 0 0 0 0 0
          0 0 0 0 0 0
          0 0 0 0 0 0
          0 0 0 0 0 0
          0 0 0 0 0 0
          0 0 0 0 0 0
          0 0 0 0 0 0
          0 0 0 0 0 0
          0 0 0 0 0 0
          0 0 0 0 0 0
          0 0 0 0 0 0
          0 0 0 0 0 0
          0 0 0 0 0 0
          0 0 0 0 0 0
          0 0 0 0 0 0
          0 0 0 0 0 0
          0 0 0 0 0 0
          0 0 0 0 0 0
          0 0 0 0 0 0
          0 0 0 0 0 0
          0 0 0 0 0 0
          0 0 0 0 0 0
          0 0 0 0 0 0
          0 0 0 0 0 0
          0 0 0 0 0 0
          0 0 0 0 0 0
          0 0 0 0 0 0
          0 0 0 0 0 0
          0 0 0 0 0 0
          0 0 0 0 0 0
          0 0 0 0 0 0
          0 0 0 0 0 0
          0 0 0 0 0 0
          0 0 0 0 0 0
          0 0 0 0 0 0
          0 0 0 0 0 0
          0 0 0 0 0 0
          0 0 0 0 0 0
          0 0 0 0 0 0
          0 0 0 0 0 0
          0 0 0 0 0 0
          0 0 0 0 0 0
          0 0 0 0 0 0
          0 0 0 0 0 0
          0 0 0 0 0 0
          0 0 0 0 0 0
          0 0 0 0 0 0
          0 0 0 0 0 0
          0 0 0 0 0 0
          0 0 0 0 0 0
          0 0 0 0 0 0
          0 0 0 0 0 0
          0 0 0 0 0 0
          0 0 0 0 0 0
          0 0 0 0 0 0
          0 0 0 0 0 0
          0 0 0 0 0 0
          0 0 0 0 0 0
          0 0 0 0 0 0
          0 0 0 0 0 0
          0 0 0 0 0 0
          0 0 0 0 0 0
          0 0 0 0 0 0
          0 0 0 0 0 0
          0 0 0 0 0 0
          0 0 0 0 0 0
          0 0 0 0 0 0
          0 0 0 0 0 0
          0 0 0 0 0 0
          0 0 0 0 0 0
          0 0 0 0 0 0
          0 0 0 0 0 0
          0 0 0 0 0 0
          0 0 0 0 0 0
          0 0 0 0 0 0
          0 0 0 0 0 0
          0 0 0 0 0 0
          0 0 0 0 0 0
          0 0 0 0 0 0
          0 0 0 0 0 0
          0 0 0 0 0 0
          0 0 0 0 0 0
          0 0 0 0 0 0
          0 0 0 0 0 0
          0 0 0 0 0 0
          0 0 0 0 0 0
          0 0 0 0 0 0
          0 0 0 0 0 0
          0 0 0 0 0 0
          0 0 0 0 0 0
          0 0 0 0 0 0
          0 0 0 0 0 0
          0 0 0 0 0 0
          0 0 0 0 0 0
          0 0 0 0 0 0
          0 0 0 0 0 0
          0 0 0 0 0 0
          0 0 0 0 0 0
          0 0 0 0 0 0
          0 0 0 0 0 0
          0 0 0 0 0 0
          0 0 0 0 0 0
          0 0 0 0 0 0
          0 0 0 0 0 0
          0 0 0 0 0 0
          0 0 0 0 0 0
          0 0 0 0 0 0
          0 0 0 0 0 0
          0 0 0 0 0 0
          0 0 0 0 0 0
          0 0 0 0 0 0
          0 0 0 0 0 0
          0 0 0 0 0 0
          0 0 0 0 0 0
          0 0 0 0 0 0
          0 0 0 0 0 0
          0 0 0 0 0 0
          0 0 0 0 0 0
          0 0 0 0 0 0
          0 0 0 0 0 0
          0 0 0 0 0 0
          0 0 0 0 0 0
          0 0 0 0 0 0
          0 0 0 0 0 0
          0 0 0 0 0 0
          0 0 0 0 0 0
          0 0 0 0 0 0
          0 0 0 0 0 0
          0 0 0 0 0 0
          0 0 0 0 0 0
          0 0 0 0 0 0
          0 0 0 0 0 0
          0 0 0 0 0 0
          0 0 0 0 0 0
          0 0 0 0 0 0
          0 0 0 0 0 0
          0 0 0 0 0 0
          0 0 0 0 0 0
          0 0 0 0 0 0
          0 0 0 0 0 0
          0 0 0 0 0 0
          0 0 0 0 0 0
          0 0 0 0 0 0
          0 0 0 0 0 0
          0 0 0 0 0 0
          0 0 0 0 0 0
          0 0 0 0 0 0
          0 0 0 0 0 0
          0 0 0 0 0 0
          0 0 0 0 0 0
          0 0 0 0 0 0
          0 0 0 0 0 0
          0 0 0 0 0 0
          0 0 0 0 0 0
          0 0 0 0 0 0
          0 0 0 0 0 0
          0 0 0 0 0 0
          0 0 0 0 0 0
          0 0 0 0 0 0
          0 0 0 0 0 0
          0 0 0 0 0 0
          0 0 0 0 0 0
          0 0 0 0 0 0
          0 0 0 0 0 0
          0 0 0 0 0 0
          0 0 0 0 0 0
          0 0 0 0 0 0
          0 0 0 0 0 0
          0 0 0 0 0 0
          0 0 0 0 0 0
          0 0 0 0 0 0
          0 0 0 0 0 0
          0 0 0 0 0 0
          0 0 0 0 0 0
          0 0 0 0 0 0
          0 0 0 0 0 0
          0 0 0 0 0 0
          0 0 0 0 0 0
          0 0 0 0 0 0
          0 0 0 0 0 0
          0 0 0 0 0 0
          0 0 0 0 0 0
          0 0 0 0 0 0
          0 0 0 0 0 0
          0 0 0 0 0 0
          0 0 0 0 0 0
          0 0 0 0 0 0
          0 0 0 0 0 0
          0 0 0 0 0 0
          0 0 0 0 0 0
          0 0 0 0 0 0
          0 0 0 0 0 0
          0 0 0 0 0 0
          0 0 0 0 0 0
          0 0 0 0 0 0
          0 0 0 0 0 0
          0 0 0 0 0 0
          0 0 0 0 0 0
          0 0 0 0 0 0
          0 0 0 0 0 0
          0 0 0 0 0 0
          0 0 0 0 0 0
          0 0 0 0 0 0
          0 0 0 0 0 0
          0 0 0 0 0 0
          0 0 0 0 0 0
          0 0 0 0 0 0
        </DataArray>
      </PointData>
      <CellData Scalars="vonMisesStress_forMV_lambda140000_mu50000" Vectors="ScalarGradient" Tensors="Strain">
        <DataArray type="Float64" Name="Material Id" format="ascii" RangeMin="0" RangeMax="0">
          0 0 0 0 0 0
          0 0 0 0 0 0
          0 0 0 0 0 0
          0 0 0 0 0 0
          0 0 0 0 0 0
          0 0 0 0 0 0
          0 0 0 0 0 0
          0 0 0 0 0 0
          0 0 0 0 0 0
          0 0 0 0 0 0
          0 0 0 0 0 0
          0 0 0 0 0 0
          0 0 0 0 0 0
          0 0 0 0 0 0
          0 0 0 0 0 0
          0 0 0 0 0 0
          0 0 0 0 0 0
          0 0 0 0 0 0
          0 0 0 0 0 0
          0 0 0 0 0 0
          0 0 0 0 0 0
          0 0 0 0 0 0
          0 0 0 0 0 0
          0 0 0 0 0 0
          0 0 0 0 0 0
          0 0 0 0 0 0
          0 0 0 0 0 0
          0 0 0 0 0 0
          0 0 0 0 0 0
          0 0 0 0 0 0
          0 0 0 0 0 0
          0 0 0 0 0 0
          0 0 0 0 0 0
          0 0 0 0 0 0
          0 0 0 0 0 0
          0 0 0 0 0 0
          0 0 0 0 0 0
          0 0 0 0 0 0
          0 0 0 0 0 0
          0 0 0 0 0 0
          0 0 0 0 0 0
          0 0 0 0 0 0
          0 0 0 0 0 0
          0 0 0 0 0 0
          0 0 0 0 0 0
          0 0 0 0 0 0
          0 0 0 0 0 0
          0 0 0 0 0 0
          0 0 0 0 0 0
          0 0 0 0 0 0
          0 0 0 0 0 0
          0 0 0 0 0 0
          0 0 0 0 0 0
          0 0 0 0 0 0
          0 0 0 0 0 0
          0 0 0 0 0 0
          0 0 0 0 0 0
          0 0 0 0 0 0
          0 0 0 0 0 0
          0 0 0 0 0 0
          0 0 0 0 0 0
          0 0 0 0 0 0
          0 0 0 0 0 0
          0 0 0 0 0 0
          0 0 0 0 0 0
          0 0 0 0 0 0
          0 0 0 0 0 0
          0 0 0 0 0 0
          0 0 0 0 0 0
          0 0 0 0 0 0
          0 0 0 0 0 0
          0 0 0 0 0 0
          0 0 0 0 0 0
          0 0 0 0 0 0
          0 0 0 0 0 0
          0 0 0 0 0 0
          0 0 0 0 0 0
          0 0 0 0 0 0
          0 0 0 0 0 0
          0 0 0 0 0 0
          0 0 0 0 0 0
          0 0 0 0 0 0
          0 0 0 0 0 0
          0 0 0 0 0 0
          0 0 0 0 0 0
          0 0 0 0 0 0
          0 0 0 0 0 0
          0 0 0 0 0 0
          0 0 0 0 0 0
          0 0 0 0 0 0
          0 0 0 0 0 0
          0 0 0 0 0 0
          0 0 0 0 0 0
          0 0 0 0 0 0
          0 0 0 0 0 0
          0 0 0 0 0 0
          0 0 0 0 0 0
          0 0 0 0 0 0
          0 0 0 0 0 0
          0 0 0 0 0 0
          0 0 0 0 0 0
          0 0 0 0 0 0
          0 0 0 0 0 0
          0 0 0 0 0 0
          0 0 0 0 0 0
          0 0 0 0 0 0
          0 0 0 0 0 0
          0 0 0 0 0 0
          0 0 0 0 0 0
          0 0 0 0 0 0
          0 0 0 0 0 0
          0 0 0 0 0 0
          0 0 0 0 0 0
          0 0 0 0 0 0
          0 0 0 0 0 0
          0 0 0 0 0 0
          0 0 0 0 0 0
          0 0 0 0 0 0
          0 0 0 0 0 0
          0 0 0 0 0 0
          0 0 0 0 0 0
          0 0 0 0 0 0
          0 0 0 0 0 0
          0 0 0 0 0 0
          0 0 0 0 0 0
          0 0 0 0 0 0
          0 0 0 0 0 0
          0 0 0 0 0 0
          0 0 0 0 0 0
          0 0 0 0 0 0
          0 0 0 0 0 0
          0 0 0 0 0 0
          0 0 0 0 0 0
          0 0 0 0 0 0
          0 0 0 0 0 0
          0 0 0 0 0 0
          0 0 0 0 0 0
          0 0 0 0 0 0
          0 0 0 0 0 0
          0 0 0 0 0 0
          0 0 0 0 0 0
          0 0 0 0 0 0
          0 0 0 0 0 0
          0 0 0 0 0 0
          0 0 0 0 0 0
          0 0 0 0 0 0
          0 0 0 0 0 0
          0 0 0 0 0 0
          0 0 0 0 0 0
          0 0 0 0 0 0
          0 0 0 0 0 0
          0 0 0 0 0 0
          0 0 0 0 0 0
          0 0 0 0 0 0
          0 0 0 0 0 0
          0 0 0 0 0 0
          0 0 0 0 0 0
          0 0 0 0 0 0
          0 0 0 0 0 0
          0 0 0 0 0 0
          0 0 0 0 0 0
          0 0 0 0 0 0
          0 0 0 0 0 0
          0 0 0 0 0 0
          0 0 0 0 0 0
          0 0 0 0 0 0
          0 0 0 0 0 0
          0 0 0 0 0 0
          0 0 0 0 0 0
          0 0 0 0 0 0
          0 0 0 0 0 0
          0 0 0 0 0 0
          0 0 0 0 0 0
          0 0 0 0 0 0
          0 0 0 0 0 0
          0 0 0 0 0 0
          0 0 0 0 0 0
          0 0 0 0 0 0
          0 0 0 0 0 0
          0 0 0 0 0 0
          0 0 0 0 0 0
          0 0 0 0 0 0
          0 0 0 0 0 0
          0 0 0 0 0 0
          0 0 0 0 0 0
          0 0 0 0 0 0
          0 0 0 0 0 0
          0 0 0 0 0 0
          0 0 0 0 0 0
          0 0 0 0 0 0
          0 0 0 0 0 0
          0 0 0 0 0 0
          0 0 0 0 0 0
          0 0 0 0 0 0
          0 0 0 0 0 0
          0 0 0 0 0 0
          0 0 0 0 0 0
          0 0 0 0 0 0
          0 0 0 0 0 0
          0 0 0 0 0 0
          0 0 0 0 0 0
          0 0 0 0 0 0
          0 0 0 0 0 0
          0 0 0 0 0 0
          0 0 0 0 0 0
          0 0 0 0 0 0
          0 0 0 0 0 0
          0 0 0 0 0 0
          0 0 0 0 0 0
          0 0 0 0 0 0
          0 0 0 0 0 0
          0 0 0 0 0 0
          0 0 0 0 0 0
          0 0 0 0 0 0
          0 0 0 0 0 0
          0 0 0 0 0 0
          0 0 0 0 0 0
          0 0 0 0 0 0
          0 0 0 0 0 0
          0 0 0 0 0 0
          0 0 0 0 0 0
          0 0 0 0 0 0
          0 0 0 0 0 0
          0 0 0 0 0 0
          0 0 0 0 0 0
          0 0 0 0 0 0
          0 0 0 0 0 0
          0 0 0 0 0 0
          0 0 0 0 0 0
          0 0 0 0 0 0
          0 0 0 0 0 0
          0 0 0 0 0 0
          0 0 0 0 0 0
          0 0 0 0 0 0
          0 0 0 0 0 0
          0 0 0 0 0 0
          0 0 0 0 0 0
          0 0 0 0 0 0
          0 0 0 0 0 0
          0 0 0 0 0 0
          0 0 0 0 0 0
          0 0 0 0 0 0
          0 0 0 0 0 0
          0 0 0 0 0 0
          0 0 0 0 0 0
          0 0 0 0 0 0
          0 0 0 0 0 0
          0 0 0 0 0 0
          0 0 0 0 0 0
          0 0 0 0 0 0
          0 0 0 0 0 0
          0 0 0 0 0 0
          0 0 0 0 0 0
          0 0 0 0 0 0
          0 0 0 0 0 0
          0 0 0 0 0 0
          0 0 0 0 0 0
          0 0 0 0 0 0
          0 0 0 0 0 0
          0 0 0 0 0 0
          0 0 0 0 0 0
          0 0 0 0 0 0
          0 0 0 0 0 0
          0 0 0 0 0 0
          0 0 0 0 0 0
          0 0 0 0 0 0
          0 0 0 0 0 0
          0 0 0 0 0 0
          0 0 0 0 0 0
          0 0 0 0 0 0
          0 0 0 0 0 0
          0 0 0 0 0 0
          0 0 0 0 0 0
          0 0 0 0 0 0
          0 0 0 0 0 0
          0 0 0 0 0 0
          0 0 0 0 0 0
          0 0 0 0 0 0
          0 0 0 0 0 0
          0 0 0 0 0 0
          0 0 0 0 0 0
          0 0 0 0 0 0
          0 0 0 0 0 0
          0 0 0 0 0 0
          0 0 0 0 0 0
          0 0 0 0 0 0
          0 0 0 0 0 0
          0 0 0 0 0 0
          0 0 0 0 0 0
          0 0 0 0 0 0
          0 0 0 0 0 0
          0 0 0 0 0 0
          0 0 0 0 0 0
          0 0 0 0 0 0
          0 0 0 0 0 0
          0 0 0 0 0 0
          0 0 0 0 0 0
          0 0 0 0 0 0
          0 0 0 0 0 0
          0 0 0 0 0 0
          0 0 0 0 0 0
          0 0 0 0 0 0
          0 0 0 0 0 0
          0 0 0 0 0 0
          0 0 0 0 0 0
          0 0 0 0 0 0
          0 0 0 0 0 0
          0 0 0 0 0 0
          0 0 0 0 0 0
          0 0 0 0 0 0
          0 0 0 0 0 0
          0 0 0 0 0 0
          0 0 0 0 0 0
          0 0 0 0 0 0
          0 0 0 0 0 0
          0 0 0 0 0 0
          0 0 0 0 0 0
          0 0 0 0 0 0
          0 0 0 0 0 0
          0 0 0 0 0 0
          0 0 0 0 0 0
          0 0 0 0 0 0
          0 0 0 0 0 0
          0 0 0 0 0 0
          0 0 0 0 0 0
          0 0 0 0 0 0
          0 0 0 0 0 0
          0 0 0 0 0 0
          0 0 0 0 0 0
          0 0 0 0 0 0
          0 0 0 0 0 0
          0 0 0 0 0 0
          0 0 0 0 0 0
          0 0 0 0 0 0
          0 0 0 0 0 0
          0 0 0 0 0 0
          0 0 0 0 0 0
          0 0 0 0 0 0
          0 0 0 0 0 0
          0 0 0 0 0 0
          0 0 0 0 0 0
          0 0 0 0 0 0
          0 0 0 0 0 0
          0 0 0 0 0 0
          0 0 0 0 0 0
          0 0 0 0 0 0
          0 0 0 0 0 0
          0 0 0 0 0 0
          0 0 0 0 0 0
          0 0 0 0 0 0
          0 0 0 0 0 0
          0 0 0 0 0 0
          0 0 0 0 0 0
          0 0 0 0 0 0
          0 0 0 0 0 0
          0 0 0 0 0 0
          0 0 0 0 0 0
          0 0 0 0 0 0
          0 0 0 0 0 0
          0 0 0 0 0 0
          0 0 0 0 0 0
          0 0 0 0 0 0
          0 0 0 0 0 0
          0 0 0 0 0 0
          0 0 0 0 0 0
          0 0 0 0 0 0
          0 0 0 0 0 0
          0 0 0 0 0 0
          0 0 0 0 0 0
          0 0 0 0 0 0
          0 0 0 0 0 0
          0 0 0 0 0 0
          0 0 0 0 0 0
          0 0 0 0 0 0
          0 0 0 0 0 0
          0 0 0 0 0 0
          0 0 0 0 0 0
          0 0 0 0 0 0
          0 0 0 0 0 0
          0 0 0 0 0 0
          0 0 0 0 0 0
          0 0 0 0 0 0
          0 0 0 0 0 0
          0 0 0 0 0 0
          0 0 0 0 0 0
          0 0 0 0 0 0
          0 0 0 0 0 0
          0 0 0 0 0 0
          0 0 0 0 0 0
          0 0 0 0 0 0
          0 0 0 0 0 0
          0 0 0 0 0 0
          0 0 0 0 0 0
          0 0 0 0 0 0
          0 0 0 0 0 0
          0 0 0 0 0 0
          0 0 0 0 0 0
          0 0 0 0 0 0
          0 0 0 0 0 0
          0 0 0 0 0 0
          0 0 0 0 0 0
          0 0 0 0 0 0
          0 0 0 0 0 0
          0 0 0 0 0 0
          0 0 0 0 0 0
          0 0 0 0 0 0
          0 0 0 0 0 0
          0 0 0 0 0 0
          0 0 0 0 0 0
          0 0 0 0 0 0
          0 0 0 0 0 0
          0 0 0 0 0 0
          0 0 0 0 0 0
          0 0 0 0 0 0
          0 0 0 0 0 0
          0 0 0 0 0 0
          0 0 0 0 0 0
          0 0 0 0 0 0
          0 0 0 0 0 0
          0 0 0 0 0 0
          0 0 0 0 0 0
          0 0 0 0 0 0
          0 0 0 0 0 0
          0 0 0 0 0 0
          0 0 0 0 0 0
          0 0 0 0 0 0
          0 0 0 0 0 0
          0 0 0 0 0 0
          0 0 0 0 0 0
          0 0 0 0 0 0
          0 0 0 0 0 0
          0 0 0 0 0 0
          0 0 0 0 0 0
          0 0 0 0 0 0
          0 0 0 0 0 0
          0 0 0 0 0 0
          0 0 0 0 0 0
          0 0 0 0 0 0
          0 0 0 0 0 0
          0 0 0 0 0 0
          0 0 0 0 0 0
          0 0 0 0 0 0
          0 0 0 0 0 0
          0 0 0 0 0 0
          0 0 0 0 0 0
          0 0 0 0 0 0
          0 0 0 0 0 0
          0 0 0 0 0 0
          0 0 0 0 0 0
          0 0 0 0 0 0
          0 0 0 0 0 0
          0 0 0 0 0 0
          0 0 0 0 0 0
          0 0 0 0 0 0
          0 0 0 0 0 0
          0 0 0 0 0 0
          0 0 0 0 0 0
          0 0 0 0 0 0
          0 0 0 0 0 0
          0 0 0 0 0 0
          0 0 0 0 0 0
          0 0 0 0 0 0
          0 0 0 0 0 0
          0 0 0 0 0 0
          0 0 0 0 0 0
          0 0 0 0 0 0
          0 0 0 0 0 0
          0 0 0 0 0 0
          0 0 0 0 0 0
          0 0 0 0 0 0
          0 0 0 0 0 0
          0 0 0 0 0 0
          0 0 0 0 0 0
          0 0 0 0 0 0
          0 0 0 0 0 0
          0 0 0 0 0 0
          0 0 0 0 0 0
          0 0 0 0 0 0
          0 0 0 0 0 0
          0 0 0 0 0 0
          0 0 0 0 0 0
          0 0 0 0 0 0
          0 0 0 0 0 0
          0 0 0 0 0 0
          0 0 0 0 0 0
          0 0 0 0 0 0
          0 0 0 0 0 0
          0 0 0 0 0 0
          0 0 0 0 0 0
          0 0 0 0 0 0
          0 0 0 0 0 0
          0 0 0 0 0 0
          0 0 0 0 0 0
          0 0 0 0 0 0
          0 0 0 0 0 0
          0 0 0 0 0 0
          0 0 0 0 0 0
          0 0 0 0 0 0
          0 0 0 0 0 0
          0 0 0 0 0 0
          0 0 0 0 0 0
          0 0 0 0 0 0
          0 0 0 0 0 0
          0 0 0 0 0 0
          0 0 0 0 0 0
          0 0 0 0 0 0
          0 0 0 0 0 0
          0 0 0 0 0 0
          0 0 0 0 0 0
          0 0 0 0 0 0
          0 0 0 0 0 0
          0 0 0 0 0 0
          0 0 0 0 0 0
          0 0 0 0 0 0
          0 0 0 0 0 0
          0 0 0 0 0 0
          0 0 0 0 0 0
          0 0 0 0 0 0
          0 0 0 0 0 0
          0 0 0 0 0 0
          0 0 0 0 0 0
          0 0 0 0 0 0
          0 0 0 0 0 0
          0 0 0 0 0 0
          0 0 0 0 0 0
          0 0 0 0 0 0
          0 0 0 0 0 0
          0 0 0 0 0 0
          0 0 0 0 0 0
          0 0 0 0 0 0
          0 0 0 0 0 0
          0 0 0 0 0 0
          0 0 0 0 0 0
          0 0 0 0 0 0
          0 0 0 0 0 0
          0 0 0 0 0 0
          0 0 0 0 0 0
          0 0 0 0 0 0
          0 0 0 0 0 0
          0 0 0 0 0 0
          0 0 0 0 0 0
          0 0 0 0 0 0
          0 0 0 0 0 0
          0 0 0 0 0 0
          0 0 0 0 0 0
          0 0 0 0 0 0
          0 0 0 0 0 0
          0 0 0 0 0 0
          0 0 0 0 0 0
          0 0 0 0 0 0
          0 0 0 0 0 0
          0 0 0 0 0 0
          0 0 0 0 0 0
          0 0 0 0 0 0
          0 0 0 0 0 0
          0 0 0 0 0 0
          0 0 0 0 0 0
          0 0 0 0 0 0
          0 0 0 0 0 0
          0 0 0 0 0 0
          0 0 0 0 0 0
          0 0 0 0 0 0
          0 0 0 0 0 0
          0 0 0 0 0 0
          0 0 0 0 0 0
          0 0 0 0 0 0
          0 0 0 0 0 0
          0 0 0 0 0 0
          0 0 0 0 0 0
          0 0 0 0 0 0
          0 0 0 0 0 0
          0 0 0 0 0 0
          0 0 0 0 0 0
          0 0 0 0 0 0
          0 0 0 0 0 0
          0 0 0 0 0 0
          0 0 0 0 0 0
          0 0 0 0 0 0
          0 0 0 0 0 0
          0 0 0 0 0 0
          0 0 0 0 0 0
          0 0 0 0 0 0
          0 0 0 0 0 0
          0 0 0 0 0 0
          0 0 0 0 0 0
          0 0 0 0 0 0
          0 0 0 0 0 0
          0 0 0 0 0 0
          0 0 0 0 0 0
          0 0 0 0 0 0
          0 0 0 0 0 0
          0 0 0 0 0 0
          0 0 0 0 0 0
          0 0 0 0 0 0
          0 0 0 0 0 0
          0 0 0 0 0 0
          0 0 0 0 0 0
          0 0 0 0 0 0
          0 0 0 0 0 0
          0 0 0 0 0 0
          0 0 0 0 0 0
          0 0 0 0 0 0
          0 0 0 0 0 0
          0 0 0 0 0 0
          0 0 0 0 0 0
          0 0 0 0 0 0
          0 0 0 0 0 0
          0 0 0 0 0 0
          0 0 0 0 0 0
          0 0 0 0 0 0
          0 0 0 0 0 0
          0 0 0 0 0 0
          0 0 0 0 0 0
          0 0 0 0 0 0
          0 0 0 0 0 0
          0 0 0 0 0 0
          0 0 0 0 0 0
          0 0 0 0 0 0
          0 0 0 0 0 0
          0 0 0 0 0 0
          0 0 0 0 0 0
          0 0 0 0 0 0
          0 0 0 0 0 0
          0 0 0 0 0 0
          0 0 0 0 0 0
          0 0 0 0 0 0
          0 0 0 0 0 0
          0 0 0 0 0 0
          0 0 0 0 0 0
          0 0 0 0 0 0
          0 0 0 0 0 0
          0 0 0 0 0 0
          0 0 0 0 0 0
          0 0 0 0 0 0
          0 0 0 0 0 0
          0 0 0 0 0 0
          0 0 0 0 0 0
          0 0 0 0 0 0
          0 0 0 0 0 0
          0 0 0 0 0 0
          0 0 0 0 0 0
          0 0 0 0 0 0
          0 0 0 0 0 0
          0 0 0 0 0 0
          0 0 0 0 0 0
          0 0 0 0 0 0
          0 0 0 0 0 0
          0 0 0 0 0 0
          0 0 0 0 0 0
          0 0 0 0 0 0
          0 0 0 0 0 0
          0 0 0 0 0 0
          0 0 0 0 0 0
          0 0 0 0 0 0
          0 0 0 0 0 0
          0 0 0 0 0 0
          0 0 0 0 0 0
          0 0 0 0 0 0
          0 0 0 0 0 0
          0 0 0 0 0 0
          0 0 0 0 0 0
          0 0 0 0 0 0
          0 0 0 0 0 0
          0 0 0 0 0 0
          0 0 0 0 0 0
          0 0 0 0 0 0
          0 0 0 0 0 0
          0 0 0 0 0 0
          0 0 0 0 0 0
          0 0 0 0 0 0
          0 0 0 0 0 0
          0 0 0 0 0 0
          0 0 0 0 0 0
          0 0 0 0 0 0
          0 0 0 0 0 0
          0 0 0 0 0 0
          0 0 0 0 0 0
          0 0 0 0 0 0
          0 0 0 0 0 0
          0 0 0 0 0 0
          0 0 0 0 0 0
          0 0 0 0 0 0
          0 0 0 0 0 0
          0 0 0 0 0 0
          0 0 0 0 0 0
          0 0 0 0 0 0
          0 0 0 0 0 0
          0 0 0 0 0 0
          0 0 0 0 0 0
          0 0 0 0 0 0
          0 0 0 0 0 0
          0 0 0 0 0 0
          0 0 0 0 0 0
          0 0 0 0 0 0
          0 0 0 0 0 0
          0 0 0 0 0 0
          0 0 0 0 0 0
          0 0 0 0 0 0
          0 0 0 0 0 0
          0 0 0 0 0 0
          0 0 0 0 0 0
          0 0 0 0 0 0
          0 0 0 0 0 0
          0 0 0 0 0 0
          0 0 0 0 0 0
          0 0 0 0 0 0
          0 0 0 0 0 0
          0 0 0 0 0 0
          0 0 0 0 0 0
          0 0 0 0 0 0
          0 0 0 0 0 0
          0 0 0 0 0 0
          0 0 0 0 0 0
          0 0 0 0 0 0
          0 0 0 0 0 0
          0 0 0 0 0 0
          0 0 0 0 0 0
          0 0 0 0 0 0
          0 0 0 0 0 0
          0 0 0 0 0 0
          0 0 0 0 0 0
          0 0 0 0 0 0
          0 0 0 0 0 0
          0 0 0 0 0 0
          0 0 0 0 0 0
          0 0 0 0 0 0
          0 0 0 0 0 0
          0 0 0 0 0 0
          0 0 0 0 0 0
          0 0 0 0 0 0
          0 0 0 0 0 0
          0 0 0 0 0 0
          0 0 0 0 0 0
          0 0 0 0 0 0
          0 0 0 0 0 0
          0 0 0 0 0 0
          0 0 0 0 0 0
          0 0 0 0 0 0
          0 0 0 0 0 0
          0 0 0 0 0 0
          0 0 0 0 0 0
          0 0 0 0 0 0
          0 0 0 0 0 0
          0 0 0 0 0 0
          0 0 0 0 0 0
          0 0 0 0 0 0
          0 0 0 0 0 0
          0 0 0 0 0 0
          0 0 0 0 0 0
          0 0 0 0 0 0
          0 0 0 0 0 0
          0 0 0 0 0 0
          0 0 0 0 0 0
          0 0 0 0 0 0
          0 0 0 0 0 0
          0 0 0 0 0 0
          0 0 0 0 0 0
          0 0 0 0 0 0
          0 0 0 0 0 0
          0 0 0 0 0 0
          0 0 0 0 0 0
          0 0 0 0 0 0
          0 0 0 0 0 0
          0 0 0 0 0 0
          0 0 0 0 0 0
          0 0 0 0 0 0
          0 0 0 0 0 0
          0 0 0 0 0 0
          0 0 0 0 0 0
          0 0 0 0 0 0
          0 0 0 0 0 0
          0 0 0 0 0 0
          0 0 0 0 0 0
          0 0 0 0 0 0
          0 0 0 0 0 0
          0 0 0 0 0 0
          0 0 0 0 0 0
          0 0 0 0 0 0
          0 0 0 0 0 0
          0 0 0 0 0 0
          0 0 0 0 0 0
          0 0 0 0 0 0
          0 0 0 0 0 0
          0 0 0 0 0 0
          0 0 0 0 0 0
          0 0 0 0 0 0
          0 0 0 0 0 0
          0 0 0 0 0 0
          0 0 0 0 0 0
          0 0 0 0 0 0
          0 0 0 0 0 0
          0 0 0 0 0 0
          0 0 0 0 0 0
          0 0 0 0 0 0
          0 0 0 0 0 0
          0 0 0 0 0 0
          0 0 0 0 0 0
          0 0 0 0 0 0
          0 0 0 0 0 0
          0 0 0 0 0 0
          0 0 0 0 0 0
          0 0 0 0 0 0
          0 0 0 0 0 0
          0 0 0 0 0 0
          0 0 0 0 0 0
          0 0 0 0 0 0
          0 0 0 0 0 0
          0 0 0 0 0 0
          0 0 0 0 0 0
          0 0 0 0 0 0
          0 0 0 0 0 0
          0 0 0 0 0 0
          0 0 0 0 0 0
          0 0 0 0 0 0
          0 0 0 0 0 0
          0 0 0 0 0 0
          0 0 0 0 0 0
          0 0 0 0 0 0
          0 0 0 0 0 0
          0 0 0 0 0 0
          0 0 0 0 0 0
          0 0 0 0 0 0
          0 0 0 0 0 0
          0 0 0 0 0 0
          0 0 0 0 0 0
          0 0 0 0 0 0
          0 0 0 0 0 0
          0 0 0 0 0 0
          0 0 0 0 0 0
          0 0 0 0 0 0
          0 0 0 0 0 0
          0 0 0 0 0 0
          0 0 0 0 0 0
          0 0 0 0 0 0
          0 0 0 0 0 0
          0 0 0 0 0 0
          0 0 0 0 0 0
          0 0 0 0 0 0
          0 0 0 0 0 0
          0 0 0 0 0 0
          0 0 0 0 0 0
          0 0 0 0 0 0
          0 0 0 0 0 0
          0 0 0 0 0 0
          0 0 0 0 0 0
          0 0 0 0 0 0
          0 0 0 0 0 0
          0 0 0 0 0 0
          0 0 0 0 0 0
          0 0 0 0 0 0
          0 0 0 0 0 0
          0 0 0 0 0 0
          0 0 0 0 0 0
          0 0 0 0 0 0
          0 0 0 0 0 0
          0 0 0 0 0 0
          0 0 0 0 0 0
          0 0 0 0 0 0
          0 0 0 0 0 0
          0 0 0 0 0 0
          0 0 0 0 0 0
          0 0 0 0 0 0
          0 0 0 0 0 0
          0 0 0 0 0 0
          0 0 0 0 0 0
          0 0 0 0 0 0
          0 0 0 0 0 0
          0 0 0 0 0 0
          0 0 0 0 0 0
          0 0 0 0 0 0
          0 0 0 0 0 0
          0 0 0 0 0 0
          0 0 0 0 0 0
          0 0 0 0 0 0
          0 0 0 0 0 0
          0 0 0 0 0 0
          0 0 0 0 0 0
          0 0 0 0 0 0
          0 0 0 0 0 0
          0 0 0 0 0 0
          0 0 0 0 0 0
          0 0 0 0 0 0
          0 0 0 0 0 0
          0 0 0 0 0 0
          0 0 0 0 0 0
          0 0 0 0 0 0
          0 0 0 0 0 0
          0 0 0 0 0 0
          0 0 0 0 0 0
          0 0 0 0 0 0
          0 0 0 0 0 0
          0 0 0 0 0 0
          0 0 0 0 0 0
          0 0 0 0 0 0
          0 0 0 0 0 0
          0 0 0 0 0 0
          0 0 0 0 0 0
          0 0 0 0 0 0
          0 0 0 0 0 0
          0 0 0 0 0 0
          0 0 0 0 0 0
          0 0 0 0 0 0
          0 0 0 0 0 0
          0 0 0 0 0 0
          0 0 0 0 0 0
          0 0 0 0 0 0
          0 0 0 0 0 0
          0 0 0 0 0 0
          0 0 0 0 0 0
          0 0 0 0 0 0
          0 0 0 0 0 0
          0
        </DataArray>
        <DataArray type="Float64" Name="_remote_index_" format="ascii" RangeMin="-1" RangeMax="-1">
          -1 -1 -1 -1 -1 -1
          -1 -1 -1 -1 -1 -1
          -1 -1 -1 -1 -1 -1
          -1 -1 -1 -1 -1 -1
          -1 -1 -1 -1 -1 -1
          -1 -1 -1 -1 -1 -1
          -1 -1 -1 -1 -1 -1
          -1 -1 -1 -1 -1 -1
          -1 -1 -1 -1 -1 -1
          -1 -1 -1 -1 -1 -1
          -1 -1 -1 -1 -1 -1
          -1 -1 -1 -1 -1 -1
          -1 -1 -1 -1 -1 -1
          -1 -1 -1 -1 -1 -1
          -1 -1 -1 -1 -1 -1
          -1 -1 -1 -1 -1 -1
          -1 -1 -1 -1 -1 -1
          -1 -1 -1 -1 -1 -1
          -1 -1 -1 -1 -1 -1
          -1 -1 -1 -1 -1 -1
          -1 -1 -1 -1 -1 -1
          -1 -1 -1 -1 -1 -1
          -1 -1 -1 -1 -1 -1
          -1 -1 -1 -1 -1 -1
          -1 -1 -1 -1 -1 -1
          -1 -1 -1 -1 -1 -1
          -1 -1 -1 -1 -1 -1
          -1 -1 -1 -1 -1 -1
          -1 -1 -1 -1 -1 -1
          -1 -1 -1 -1 -1 -1
          -1 -1 -1 -1 -1 -1
          -1 -1 -1 -1 -1 -1
          -1 -1 -1 -1 -1 -1
          -1 -1 -1 -1 -1 -1
          -1 -1 -1 -1 -1 -1
          -1 -1 -1 -1 -1 -1
          -1 -1 -1 -1 -1 -1
          -1 -1 -1 -1 -1 -1
          -1 -1 -1 -1 -1 -1
          -1 -1 -1 -1 -1 -1
          -1 -1 -1 -1 -1 -1
          -1 -1 -1 -1 -1 -1
          -1 -1 -1 -1 -1 -1
          -1 -1 -1 -1 -1 -1
          -1 -1 -1 -1 -1 -1
          -1 -1 -1 -1 -1 -1
          -1 -1 -1 -1 -1 -1
          -1 -1 -1 -1 -1 -1
          -1 -1 -1 -1 -1 -1
          -1 -1 -1 -1 -1 -1
          -1 -1 -1 -1 -1 -1
          -1 -1 -1 -1 -1 -1
          -1 -1 -1 -1 -1 -1
          -1 -1 -1 -1 -1 -1
          -1 -1 -1 -1 -1 -1
          -1 -1 -1 -1 -1 -1
          -1 -1 -1 -1 -1 -1
          -1 -1 -1 -1 -1 -1
          -1 -1 -1 -1 -1 -1
          -1 -1 -1 -1 -1 -1
          -1 -1 -1 -1 -1 -1
          -1 -1 -1 -1 -1 -1
          -1 -1 -1 -1 -1 -1
          -1 -1 -1 -1 -1 -1
          -1 -1 -1 -1 -1 -1
          -1 -1 -1 -1 -1 -1
          -1 -1 -1 -1 -1 -1
          -1 -1 -1 -1 -1 -1
          -1 -1 -1 -1 -1 -1
          -1 -1 -1 -1 -1 -1
          -1 -1 -1 -1 -1 -1
          -1 -1 -1 -1 -1 -1
          -1 -1 -1 -1 -1 -1
          -1 -1 -1 -1 -1 -1
          -1 -1 -1 -1 -1 -1
          -1 -1 -1 -1 -1 -1
          -1 -1 -1 -1 -1 -1
          -1 -1 -1 -1 -1 -1
          -1 -1 -1 -1 -1 -1
          -1 -1 -1 -1 -1 -1
          -1 -1 -1 -1 -1 -1
          -1 -1 -1 -1 -1 -1
          -1 -1 -1 -1 -1 -1
          -1 -1 -1 -1 -1 -1
          -1 -1 -1 -1 -1 -1
          -1 -1 -1 -1 -1 -1
          -1 -1 -1 -1 -1 -1
          -1 -1 -1 -1 -1 -1
          -1 -1 -1 -1 -1 -1
          -1 -1 -1 -1 -1 -1
          -1 -1 -1 -1 -1 -1
          -1 -1 -1 -1 -1 -1
          -1 -1 -1 -1 -1 -1
          -1 -1 -1 -1 -1 -1
          -1 -1 -1 -1 -1 -1
          -1 -1 -1 -1 -1 -1
          -1 -1 -1 -1 -1 -1
          -1 -1 -1 -1 -1 -1
          -1 -1 -1 -1 -1 -1
          -1 -1 -1 -1 -1 -1
          -1 -1 -1 -1 -1 -1
          -1 -1 -1 -1 -1 -1
          -1 -1 -1 -1 -1 -1
          -1 -1 -1 -1 -1 -1
          -1 -1 -1 -1 -1 -1
          -1 -1 -1 -1 -1 -1
          -1 -1 -1 -1 -1 -1
          -1 -1 -1 -1 -1 -1
          -1 -1 -1 -1 -1 -1
          -1 -1 -1 -1 -1 -1
          -1 -1 -1 -1 -1 -1
          -1 -1 -1 -1 -1 -1
          -1 -1 -1 -1 -1 -1
          -1 -1 -1 -1 -1 -1
          -1 -1 -1 -1 -1 -1
          -1 -1 -1 -1 -1 -1
          -1 -1 -1 -1 -1 -1
          -1 -1 -1 -1 -1 -1
          -1 -1 -1 -1 -1 -1
          -1 -1 -1 -1 -1 -1
          -1 -1 -1 -1 -1 -1
          -1 -1 -1 -1 -1 -1
          -1 -1 -1 -1 -1 -1
          -1 -1 -1 -1 -1 -1
          -1 -1 -1 -1 -1 -1
          -1 -1 -1 -1 -1 -1
          -1 -1 -1 -1 -1 -1
          -1 -1 -1 -1 -1 -1
          -1 -1 -1 -1 -1 -1
          -1 -1 -1 -1 -1 -1
          -1 -1 -1 -1 -1 -1
          -1 -1 -1 -1 -1 -1
          -1 -1 -1 -1 -1 -1
          -1 -1 -1 -1 -1 -1
          -1 -1 -1 -1 -1 -1
          -1 -1 -1 -1 -1 -1
          -1 -1 -1 -1 -1 -1
          -1 -1 -1 -1 -1 -1
          -1 -1 -1 -1 -1 -1
          -1 -1 -1 -1 -1 -1
          -1 -1 -1 -1 -1 -1
          -1 -1 -1 -1 -1 -1
          -1 -1 -1 -1 -1 -1
          -1 -1 -1 -1 -1 -1
          -1 -1 -1 -1 -1 -1
          -1 -1 -1 -1 -1 -1
          -1 -1 -1 -1 -1 -1
          -1 -1 -1 -1 -1 -1
          -1 -1 -1 -1 -1 -1
          -1 -1 -1 -1 -1 -1
          -1 -1 -1 -1 -1 -1
          -1 -1 -1 -1 -1 -1
          -1 -1 -1 -1 -1 -1
          -1 -1 -1 -1 -1 -1
          -1 -1 -1 -1 -1 -1
          -1 -1 -1 -1 -1 -1
          -1 -1 -1 -1 -1 -1
          -1 -1 -1 -1 -1 -1
          -1 -1 -1 -1 -1 -1
          -1 -1 -1 -1 -1 -1
          -1 -1 -1 -1 -1 -1
          -1 -1 -1 -1 -1 -1
          -1 -1 -1 -1 -1 -1
          -1 -1 -1 -1 -1 -1
          -1 -1 -1 -1 -1 -1
          -1 -1 -1 -1 -1 -1
          -1 -1 -1 -1 -1 -1
          -1 -1 -1 -1 -1 -1
          -1 -1 -1 -1 -1 -1
          -1 -1 -1 -1 -1 -1
          -1 -1 -1 -1 -1 -1
          -1 -1 -1 -1 -1 -1
          -1 -1 -1 -1 -1 -1
          -1 -1 -1 -1 -1 -1
          -1 -1 -1 -1 -1 -1
          -1 -1 -1 -1 -1 -1
          -1 -1 -1 -1 -1 -1
          -1 -1 -1 -1 -1 -1
          -1 -1 -1 -1 -1 -1
          -1 -1 -1 -1 -1 -1
          -1 -1 -1 -1 -1 -1
          -1 -1 -1 -1 -1 -1
          -1 -1 -1 -1 -1 -1
          -1 -1 -1 -1 -1 -1
          -1 -1 -1 -1 -1 -1
          -1 -1 -1 -1 -1 -1
          -1 -1 -1 -1 -1 -1
          -1 -1 -1 -1 -1 -1
          -1 -1 -1 -1 -1 -1
          -1 -1 -1 -1 -1 -1
          -1 -1 -1 -1 -1 -1
          -1 -1 -1 -1 -1 -1
          -1 -1 -1 -1 -1 -1
          -1 -1 -1 -1 -1 -1
          -1 -1 -1 -1 -1 -1
          -1 -1 -1 -1 -1 -1
          -1 -1 -1 -1 -1 -1
          -1 -1 -1 -1 -1 -1
          -1 -1 -1 -1 -1 -1
          -1 -1 -1 -1 -1 -1
          -1 -1 -1 -1 -1 -1
          -1 -1 -1 -1 -1 -1
          -1 -1 -1 -1 -1 -1
          -1 -1 -1 -1 -1 -1
          -1 -1 -1 -1 -1 -1
          -1 -1 -1 -1 -1 -1
          -1 -1 -1 -1 -1 -1
          -1 -1 -1 -1 -1 -1
          -1 -1 -1 -1 -1 -1
          -1 -1 -1 -1 -1 -1
          -1 -1 -1 -1 -1 -1
          -1 -1 -1 -1 -1 -1
          -1 -1 -1 -1 -1 -1
          -1 -1 -1 -1 -1 -1
          -1 -1 -1 -1 -1 -1
          -1 -1 -1 -1 -1 -1
          -1 -1 -1 -1 -1 -1
          -1 -1 -1 -1 -1 -1
          -1 -1 -1 -1 -1 -1
          -1 -1 -1 -1 -1 -1
          -1 -1 -1 -1 -1 -1
          -1 -1 -1 -1 -1 -1
          -1 -1 -1 -1 -1 -1
          -1 -1 -1 -1 -1 -1
          -1 -1 -1 -1 -1 -1
          -1 -1 -1 -1 -1 -1
          -1 -1 -1 -1 -1 -1
          -1 -1 -1 -1 -1 -1
          -1 -1 -1 -1 -1 -1
          -1 -1 -1 -1 -1 -1
          -1 -1 -1 -1 -1 -1
          -1 -1 -1 -1 -1 -1
          -1 -1 -1 -1 -1 -1
          -1 -1 -1 -1 -1 -1
          -1 -1 -1 -1 -1 -1
          -1 -1 -1 -1 -1 -1
          -1 -1 -1 -1 -1 -1
          -1 -1 -1 -1 -1 -1
          -1 -1 -1 -1 -1 -1
          -1 -1 -1 -1 -1 -1
          -1 -1 -1 -1 -1 -1
          -1 -1 -1 -1 -1 -1
          -1 -1 -1 -1 -1 -1
          -1 -1 -1 -1 -1 -1
          -1 -1 -1 -1 -1 -1
          -1 -1 -1 -1 -1 -1
          -1 -1 -1 -1 -1 -1
          -1 -1 -1 -1 -1 -1
          -1 -1 -1 -1 -1 -1
          -1 -1 -1 -1 -1 -1
          -1 -1 -1 -1 -1 -1
          -1 -1 -1 -1 -1 -1
          -1 -1 -1 -1 -1 -1
          -1 -1 -1 -1 -1 -1
          -1 -1 -1 -1 -1 -1
          -1 -1 -1 -1 -1 -1
          -1 -1 -1 -1 -1 -1
          -1 -1 -1 -1 -1 -1
          -1 -1 -1 -1 -1 -1
          -1 -1 -1 -1 -1 -1
          -1 -1 -1 -1 -1 -1
          -1 -1 -1 -1 -1 -1
          -1 -1 -1 -1 -1 -1
          -1 -1 -1 -1 -1 -1
          -1 -1 -1 -1 -1 -1
          -1 -1 -1 -1 -1 -1
          -1 -1 -1 -1 -1 -1
          -1 -1 -1 -1 -1 -1
          -1 -1 -1 -1 -1 -1
          -1 -1 -1 -1 -1 -1
          -1 -1 -1 -1 -1 -1
          -1 -1 -1 -1 -1 -1
          -1 -1 -1 -1 -1 -1
          -1 -1 -1 -1 -1 -1
          -1 -1 -1 -1 -1 -1
          -1 -1 -1 -1 -1 -1
          -1 -1 -1 -1 -1 -1
          -1 -1 -1 -1 -1 -1
          -1 -1 -1 -1 -1 -1
          -1 -1 -1 -1 -1 -1
          -1 -1 -1 -1 -1 -1
          -1 -1 -1 -1 -1 -1
          -1 -1 -1 -1 -1 -1
          -1 -1 -1 -1 -1 -1
          -1 -1 -1 -1 -1 -1
          -1 -1 -1 -1 -1 -1
          -1 -1 -1 -1 -1 -1
          -1 -1 -1 -1 -1 -1
          -1 -1 -1 -1 -1 -1
          -1 -1 -1 -1 -1 -1
          -1 -1 -1 -1 -1 -1
          -1 -1 -1 -1 -1 -1
          -1 -1 -1 -1 -1 -1
          -1 -1 -1 -1 -1 -1
          -1 -1 -1 -1 -1 -1
          -1 -1 -1 -1 -1 -1
          -1 -1 -1 -1 -1 -1
          -1 -1 -1 -1 -1 -1
          -1 -1 -1 -1 -1 -1
          -1 -1 -1 -1 -1 -1
          -1 -1 -1 -1 -1 -1
          -1 -1 -1 -1 -1 -1
          -1 -1 -1 -1 -1 -1
          -1 -1 -1 -1 -1 -1
          -1 -1 -1 -1 -1 -1
          -1 -1 -1 -1 -1 -1
          -1 -1 -1 -1 -1 -1
          -1 -1 -1 -1 -1 -1
          -1 -1 -1 -1 -1 -1
          -1 -1 -1 -1 -1 -1
          -1 -1 -1 -1 -1 -1
          -1 -1 -1 -1 -1 -1
          -1 -1 -1 -1 -1 -1
          -1 -1 -1 -1 -1 -1
          -1 -1 -1 -1 -1 -1
          -1 -1 -1 -1 -1 -1
          -1 -1 -1 -1 -1 -1
          -1 -1 -1 -1 -1 -1
          -1 -1 -1 -1 -1 -1
          -1 -1 -1 -1 -1 -1
          -1 -1 -1 -1 -1 -1
          -1 -1 -1 -1 -1 -1
          -1 -1 -1 -1 -1 -1
          -1 -1 -1 -1 -1 -1
          -1 -1 -1 -1 -1 -1
          -1 -1 -1 -1 -1 -1
          -1 -1 -1 -1 -1 -1
          -1 -1 -1 -1 -1 -1
          -1 -1 -1 -1 -1 -1
          -1 -1 -1 -1 -1 -1
          -1 -1 -1 -1 -1 -1
          -1 -1 -1 -1 -1 -1
          -1 -1 -1 -1 -1 -1
          -1 -1 -1 -1 -1 -1
          -1 -1 -1 -1 -1 -1
          -1 -1 -1 -1 -1 -1
          -1 -1 -1 -1 -1 -1
          -1 -1 -1 -1 -1 -1
          -1 -1 -1 -1 -1 -1
          -1 -1 -1 -1 -1 -1
          -1 -1 -1 -1 -1 -1
          -1 -1 -1 -1 -1 -1
          -1 -1 -1 -1 -1 -1
          -1 -1 -1 -1 -1 -1
          -1 -1 -1 -1 -1 -1
          -1 -1 -1 -1 -1 -1
          -1 -1 -1 -1 -1 -1
          -1 -1 -1 -1 -1 -1
          -1 -1 -1 -1 -1 -1
          -1 -1 -1 -1 -1 -1
          -1 -1 -1 -1 -1 -1
          -1 -1 -1 -1 -1 -1
          -1 -1 -1 -1 -1 -1
          -1 -1 -1 -1 -1 -1
          -1 -1 -1 -1 -1 -1
          -1 -1 -1 -1 -1 -1
          -1 -1 -1 -1 -1 -1
          -1 -1 -1 -1 -1 -1
          -1 -1 -1 -1 -1 -1
          -1 -1 -1 -1 -1 -1
          -1 -1 -1 -1 -1 -1
          -1 -1 -1 -1 -1 -1
          -1 -1 -1 -1 -1 -1
          -1 -1 -1 -1 -1 -1
          -1 -1 -1 -1 -1 -1
          -1 -1 -1 -1 -1 -1
          -1 -1 -1 -1 -1 -1
          -1 -1 -1 -1 -1 -1
          -1 -1 -1 -1 -1 -1
          -1 -1 -1 -1 -1 -1
          -1 -1 -1 -1 -1 -1
          -1 -1 -1 -1 -1 -1
          -1 -1 -1 -1 -1 -1
          -1 -1 -1 -1 -1 -1
          -1 -1 -1 -1 -1 -1
          -1 -1 -1 -1 -1 -1
          -1 -1 -1 -1 -1 -1
          -1 -1 -1 -1 -1 -1
          -1 -1 -1 -1 -1 -1
          -1 -1 -1 -1 -1 -1
          -1 -1 -1 -1 -1 -1
          -1 -1 -1 -1 -1 -1
          -1 -1 -1 -1 -1 -1
          -1 -1 -1 -1 -1 -1
          -1 -1 -1 -1 -1 -1
          -1 -1 -1 -1 -1 -1
          -1 -1 -1 -1 -1 -1
          -1 -1 -1 -1 -1 -1
          -1 -1 -1 -1 -1 -1
          -1 -1 -1 -1 -1 -1
          -1 -1 -1 -1 -1 -1
          -1 -1 -1 -1 -1 -1
          -1 -1 -1 -1 -1 -1
          -1 -1 -1 -1 -1 -1
          -1 -1 -1 -1 -1 -1
          -1 -1 -1 -1 -1 -1
          -1 -1 -1 -1 -1 -1
          -1 -1 -1 -1 -1 -1
          -1 -1 -1 -1 -1 -1
          -1 -1 -1 -1 -1 -1
          -1 -1 -1 -1 -1 -1
          -1 -1 -1 -1 -1 -1
          -1 -1 -1 -1 -1 -1
          -1 -1 -1 -1 -1 -1
          -1 -1 -1 -1 -1 -1
          -1 -1 -1 -1 -1 -1
          -1 -1 -1 -1 -1 -1
          -1 -1 -1 -1 -1 -1
          -1 -1 -1 -1 -1 -1
          -1 -1 -1 -1 -1 -1
          -1 -1 -1 -1 -1 -1
          -1 -1 -1 -1 -1 -1
          -1 -1 -1 -1 -1 -1
          -1 -1 -1 -1 -1 -1
          -1 -1 -1 -1 -1 -1
          -1 -1 -1 -1 -1 -1
          -1 -1 -1 -1 -1 -1
          -1 -1 -1 -1 -1 -1
          -1 -1 -1 -1 -1 -1
          -1 -1 -1 -1 -1 -1
          -1 -1 -1 -1 -1 -1
          -1 -1 -1 -1 -1 -1
          -1 -1 -1 -1 -1 -1
          -1 -1 -1 -1 -1 -1
          -1 -1 -1 -1 -1 -1
          -1 -1 -1 -1 -1 -1
          -1 -1 -1 -1 -1 -1
          -1 -1 -1 -1 -1 -1
          -1 -1 -1 -1 -1 -1
          -1 -1 -1 -1 -1 -1
          -1 -1 -1 -1 -1 -1
          -1 -1 -1 -1 -1 -1
          -1 -1 -1 -1 -1 -1
          -1 -1 -1 -1 -1 -1
          -1 -1 -1 -1 -1 -1
          -1 -1 -1 -1 -1 -1
          -1 -1 -1 -1 -1 -1
          -1 -1 -1 -1 -1 -1
          -1 -1 -1 -1 -1 -1
          -1 -1 -1 -1 -1 -1
          -1 -1 -1 -1 -1 -1
          -1 -1 -1 -1 -1 -1
          -1 -1 -1 -1 -1 -1
          -1 -1 -1 -1 -1 -1
          -1 -1 -1 -1 -1 -1
          -1 -1 -1 -1 -1 -1
          -1 -1 -1 -1 -1 -1
          -1 -1 -1 -1 -1 -1
          -1 -1 -1 -1 -1 -1
          -1 -1 -1 -1 -1 -1
          -1 -1 -1 -1 -1 -1
          -1 -1 -1 -1 -1 -1
          -1 -1 -1 -1 -1 -1
          -1 -1 -1 -1 -1 -1
          -1 -1 -1 -1 -1 -1
          -1 -1 -1 -1 -1 -1
          -1 -1 -1 -1 -1 -1
          -1 -1 -1 -1 -1 -1
          -1 -1 -1 -1 -1 -1
          -1 -1 -1 -1 -1 -1
          -1 -1 -1 -1 -1 -1
          -1 -1 -1 -1 -1 -1
          -1 -1 -1 -1 -1 -1
          -1 -1 -1 -1 -1 -1
          -1 -1 -1 -1 -1 -1
          -1 -1 -1 -1 -1 -1
          -1 -1 -1 -1 -1 -1
          -1 -1 -1 -1 -1 -1
          -1 -1 -1 -1 -1 -1
          -1 -1 -1 -1 -1 -1
          -1 -1 -1 -1 -1 -1
          -1 -1 -1 -1 -1 -1
          -1 -1 -1 -1 -1 -1
          -1 -1 -1 -1 -1 -1
          -1 -1 -1 -1 -1 -1
          -1 -1 -1 -1 -1 -1
          -1 -1 -1 -1 -1 -1
          -1 -1 -1 -1 -1 -1
          -1 -1 -1 -1 -1 -1
          -1 -1 -1 -1 -1 -1
          -1 -1 -1 -1 -1 -1
          -1 -1 -1 -1 -1 -1
          -1 -1 -1 -1 -1 -1
          -1 -1 -1 -1 -1 -1
          -1 -1 -1 -1 -1 -1
          -1 -1 -1 -1 -1 -1
          -1 -1 -1 -1 -1 -1
          -1 -1 -1 -1 -1 -1
          -1 -1 -1 -1 -1 -1
          -1 -1 -1 -1 -1 -1
          -1 -1 -1 -1 -1 -1
          -1 -1 -1 -1 -1 -1
          -1 -1 -1 -1 -1 -1
          -1 -1 -1 -1 -1 -1
          -1 -1 -1 -1 -1 -1
          -1 -1 -1 -1 -1 -1
          -1 -1 -1 -1 -1 -1
          -1 -1 -1 -1 -1 -1
          -1 -1 -1 -1 -1 -1
          -1 -1 -1 -1 -1 -1
          -1 -1 -1 -1 -1 -1
          -1 -1 -1 -1 -1 -1
          -1 -1 -1 -1 -1 -1
          -1 -1 -1 -1 -1 -1
          -1 -1 -1 -1 -1 -1
          -1 -1 -1 -1 -1 -1
          -1 -1 -1 -1 -1 -1
          -1 -1 -1 -1 -1 -1
          -1 -1 -1 -1 -1 -1
          -1 -1 -1 -1 -1 -1
          -1 -1 -1 -1 -1 -1
          -1 -1 -1 -1 -1 -1
          -1 -1 -1 -1 -1 -1
          -1 -1 -1 -1 -1 -1
          -1 -1 -1 -1 -1 -1
          -1 -1 -1 -1 -1 -1
          -1 -1 -1 -1 -1 -1
          -1 -1 -1 -1 -1 -1
          -1 -1 -1 -1 -1 -1
          -1 -1 -1 -1 -1 -1
          -1 -1 -1 -1 -1 -1
          -1 -1 -1 -1 -1 -1
          -1 -1 -1 -1 -1 -1
          -1 -1 -1 -1 -1 -1
          -1 -1 -1 -1 -1 -1
          -1 -1 -1 -1 -1 -1
          -1 -1 -1 -1 -1 -1
          -1 -1 -1 -1 -1 -1
          -1 -1 -1 -1 -1 -1
          -1 -1 -1 -1 -1 -1
          -1 -1 -1 -1 -1 -1
          -1 -1 -1 -1 -1 -1
          -1 -1 -1 -1 -1 -1
          -1 -1 -1 -1 -1 -1
          -1 -1 -1 -1 -1 -1
          -1 -1 -1 -1 -1 -1
          -1 -1 -1 -1 -1 -1
          -1 -1 -1 -1 -1 -1
          -1 -1 -1 -1 -1 -1
          -1 -1 -1 -1 -1 -1
          -1 -1 -1 -1 -1 -1
          -1 -1 -1 -1 -1 -1
          -1 -1 -1 -1 -1 -1
          -1 -1 -1 -1 -1 -1
          -1 -1 -1 -1 -1 -1
          -1 -1 -1 -1 -1 -1
          -1 -1 -1 -1 -1 -1
          -1 -1 -1 -1 -1 -1
          -1 -1 -1 -1 -1 -1
          -1 -1 -1 -1 -1 -1
          -1 -1 -1 -1 -1 -1
          -1 -1 -1 -1 -1 -1
          -1 -1 -1 -1 -1 -1
          -1 -1 -1 -1 -1 -1
          -1 -1 -1 -1 -1 -1
          -1 -1 -1 -1 -1 -1
          -1 -1 -1 -1 -1 -1
          -1 -1 -1 -1 -1 -1
          -1 -1 -1 -1 -1 -1
          -1 -1 -1 -1 -1 -1
          -1 -1 -1 -1 -1 -1
          -1 -1 -1 -1 -1 -1
          -1 -1 -1 -1 -1 -1
          -1 -1 -1 -1 -1 -1
          -1 -1 -1 -1 -1 -1
          -1 -1 -1 -1 -1 -1
          -1 -1 -1 -1 -1 -1
          -1 -1 -1 -1 -1 -1
          -1 -1 -1 -1 -1 -1
          -1 -1 -1 -1 -1 -1
          -1 -1 -1 -1 -1 -1
          -1 -1 -1 -1 -1 -1
          -1 -1 -1 -1 -1 -1
          -1 -1 -1 -1 -1 -1
          -1 -1 -1 -1 -1 -1
          -1 -1 -1 -1 -1 -1
          -1 -1 -1 -1 -1 -1
          -1 -1 -1 -1 -1 -1
          -1 -1 -1 -1 -1 -1
          -1 -1 -1 -1 -1 -1
          -1 -1 -1 -1 -1 -1
          -1 -1 -1 -1 -1 -1
          -1 -1 -1 -1 -1 -1
          -1 -1 -1 -1 -1 -1
          -1 -1 -1 -1 -1 -1
          -1 -1 -1 -1 -1 -1
          -1 -1 -1 -1 -1 -1
          -1 -1 -1 -1 -1 -1
          -1 -1 -1 -1 -1 -1
          -1 -1 -1 -1 -1 -1
          -1 -1 -1 -1 -1 -1
          -1 -1 -1 -1 -1 -1
          -1 -1 -1 -1 -1 -1
          -1 -1 -1 -1 -1 -1
          -1 -1 -1 -1 -1 -1
          -1 -1 -1 -1 -1 -1
          -1 -1 -1 -1 -1 -1
          -1 -1 -1 -1 -1 -1
          -1 -1 -1 -1 -1 -1
          -1 -1 -1 -1 -1 -1
          -1 -1 -1 -1 -1 -1
          -1 -1 -1 -1 -1 -1
          -1 -1 -1 -1 -1 -1
          -1 -1 -1 -1 -1 -1
          -1 -1 -1 -1 -1 -1
          -1 -1 -1 -1 -1 -1
          -1 -1 -1 -1 -1 -1
          -1 -1 -1 -1 -1 -1
          -1 -1 -1 -1 -1 -1
          -1 -1 -1 -1 -1 -1
          -1 -1 -1 -1 -1 -1
          -1 -1 -1 -1 -1 -1
          -1 -1 -1 -1 -1 -1
          -1 -1 -1 -1 -1 -1
          -1 -1 -1 -1 -1 -1
          -1 -1 -1 -1 -1 -1
          -1 -1 -1 -1 -1 -1
          -1 -1 -1 -1 -1 -1
          -1 -1 -1 -1 -1 -1
          -1 -1 -1 -1 -1 -1
          -1 -1 -1 -1 -1 -1
          -1 -1 -1 -1 -1 -1
          -1 -1 -1 -1 -1 -1
          -1 -1 -1 -1 -1 -1
          -1 -1 -1 -1 -1 -1
          -1 -1 -1 -1 -1 -1
          -1 -1 -1 -1 -1 -1
          -1 -1 -1 -1 -1 -1
          -1 -1 -1 -1 -1 -1
          -1 -1 -1 -1 -1 -1
          -1 -1 -1 -1 -1 -1
          -1 -1 -1 -1 -1 -1
          -1 -1 -1 -1 -1 -1
          -1 -1 -1 -1 -1 -1
          -1 -1 -1 -1 -1 -1
          -1 -1 -1 -1 -1 -1
          -1 -1 -1 -1 -1 -1
          -1 -1 -1 -1 -1 -1
          -1 -1 -1 -1 -1 -1
          -1 -1 -1 -1 -1 -1
          -1 -1 -1 -1 -1 -1
          -1 -1 -1 -1 -1 -1
          -1 -1 -1 -1 -1 -1
          -1 -1 -1 -1 -1 -1
          -1 -1 -1 -1 -1 -1
          -1 -1 -1 -1 -1 -1
          -1 -1 -1 -1 -1 -1
          -1 -1 -1 -1 -1 -1
          -1 -1 -1 -1 -1 -1
          -1 -1 -1 -1 -1 -1
          -1 -1 -1 -1 -1 -1
          -1 -1 -1 -1 -1 -1
          -1 -1 -1 -1 -1 -1
          -1 -1 -1 -1 -1 -1
          -1 -1 -1 -1 -1 -1
          -1 -1 -1 -1 -1 -1
          -1 -1 -1 -1 -1 -1
          -1 -1 -1 -1 -1 -1
          -1 -1 -1 -1 -1 -1
          -1 -1 -1 -1 -1 -1
          -1 -1 -1 -1 -1 -1
          -1 -1 -1 -1 -1 -1
          -1 -1 -1 -1 -1 -1
          -1 -1 -1 -1 -1 -1
          -1 -1 -1 -1 -1 -1
          -1 -1 -1 -1 -1 -1
          -1 -1 -1 -1 -1 -1
          -1 -1 -1 -1 -1 -1
          -1 -1 -1 -1 -1 -1
          -1 -1 -1 -1 -1 -1
          -1 -1 -1 -1 -1 -1
          -1 -1 -1 -1 -1 -1
          -1 -1 -1 -1 -1 -1
          -1 -1 -1 -1 -1 -1
          -1 -1 -1 -1 -1 -1
          -1 -1 -1 -1 -1 -1
          -1 -1 -1 -1 -1 -1
          -1 -1 -1 -1 -1 -1
          -1 -1 -1 -1 -1 -1
          -1 -1 -1 -1 -1 -1
          -1 -1 -1 -1 -1 -1
          -1 -1 -1 -1 -1 -1
          -1 -1 -1 -1 -1 -1
          -1 -1 -1 -1 -1 -1
          -1 -1 -1 -1 -1 -1
          -1 -1 -1 -1 -1 -1
          -1 -1 -1 -1 -1 -1
          -1 -1 -1 -1 -1 -1
          -1 -1 -1 -1 -1 -1
          -1 -1 -1 -1 -1 -1
          -1 -1 -1 -1 -1 -1
          -1 -1 -1 -1 -1 -1
          -1 -1 -1 -1 -1 -1
          -1 -1 -1 -1 -1 -1
          -1 -1 -1 -1 -1 -1
          -1 -1 -1 -1 -1 -1
          -1 -1 -1 -1 -1 -1
          -1 -1 -1 -1 -1 -1
          -1 -1 -1 -1 -1 -1
          -1 -1 -1 -1 -1 -1
          -1 -1 -1 -1 -1 -1
          -1 -1 -1 -1 -1 -1
          -1 -1 -1 -1 -1 -1
          -1 -1 -1 -1 -1 -1
          -1 -1 -1 -1 -1 -1
          -1 -1 -1 -1 -1 -1
          -1 -1 -1 -1 -1 -1
          -1 -1 -1 -1 -1 -1
          -1 -1 -1 -1 -1 -1
          -1 -1 -1 -1 -1 -1
          -1 -1 -1 -1 -1 -1
          -1 -1 -1 -1 -1 -1
          -1 -1 -1 -1 -1 -1
          -1 -1 -1 -1 -1 -1
          -1 -1 -1 -1 -1 -1
          -1 -1 -1 -1 -1 -1
          -1 -1 -1 -1 -1 -1
          -1 -1 -1 -1 -1 -1
          -1 -1 -1 -1 -1 -1
          -1 -1 -1 -1 -1 -1
          -1 -1 -1 -1 -1 -1
          -1 -1 -1 -1 -1 -1
          -1 -1 -1 -1 -1 -1
          -1 -1 -1 -1 -1 -1
          -1 -1 -1 -1 -1 -1
          -1 -1 -1 -1 -1 -1
          -1 -1 -1 -1 -1 -1
          -1 -1 -1 -1 -1 -1
          -1 -1 -1 -1 -1 -1
          -1 -1 -1 -1 -1 -1
          -1 -1 -1 -1 -1 -1
          -1 -1 -1 -1 -1 -1
          -1 -1 -1 -1 -1 -1
          -1 -1 -1 -1 -1 -1
          -1 -1 -1 -1 -1 -1
          -1 -1 -1 -1 -1 -1
          -1 -1 -1 -1 -1 -1
          -1 -1 -1 -1 -1 -1
          -1 -1 -1 -1 -1 -1
          -1 -1 -1 -1 -1 -1
          -1 -1 -1 -1 -1 -1
          -1 -1 -1 -1 -1 -1
          -1 -1 -1 -1 -1 -1
          -1 -1 -1 -1 -1 -1
          -1 -1 -1 -1 -1 -1
          -1 -1 -1 -1 -1 -1
          -1 -1 -1 -1 -1 -1
          -1 -1 -1 -1 -1 -1
          -1 -1 -1 -1 -1 -1
          -1 -1 -1 -1 -1 -1
          -1 -1 -1 -1 -1 -1
          -1 -1 -1 -1 -1 -1
          -1 -1 -1 -1 -1 -1
          -1 -1 -1 -1 -1 -1
          -1 -1 -1 -1 -1 -1
          -1 -1 -1 -1 -1 -1
          -1 -1 -1 -1 -1 -1
          -1 -1 -1 -1 -1 -1
          -1 -1 -1 -1 -1 -1
          -1 -1 -1 -1 -1 -1
          -1 -1 -1 -1 -1 -1
          -1 -1 -1 -1 -1 -1
          -1 -1 -1 -1 -1 -1
          -1 -1 -1 -1 -1 -1
          -1 -1 -1 -1 -1 -1
          -1 -1 -1 -1 -1 -1
          -1 -1 -1 -1 -1 -1
          -1 -1 -1 -1 -1 -1
          -1 -1 -1 -1 -1 -1
          -1 -1 -1 -1 -1 -1
          -1 -1 -1 -1 -1 -1
          -1 -1 -1 -1 -1 -1
          -1 -1 -1 -1 -1 -1
          -1 -1 -1 -1 -1 -1
          -1 -1 -1 -1 -1 -1
          -1 -1 -1 -1 -1 -1
          -1 -1 -1 -1 -1 -1
          -1 -1 -1 -1 -1 -1
          -1 -1 -1 -1 -1 -1
          -1 -1 -1 -1 -1 -1
          -1 -1 -1 -1 -1 -1
          -1 -1 -1 -1 -1 -1
          -1 -1 -1 -1 -1 -1
          -1 -1 -1 -1 -1 -1
          -1 -1 -1 -1 -1 -1
          -1 -1 -1 -1 -1 -1
          -1 -1 -1 -1 -1 -1
          -1 -1 -1 -1 -1 -1
          -1 -1 -1 -1 -1 -1
          -1 -1 -1 -1 -1 -1
          -1 -1 -1 -1 -1 -1
          -1 -1 -1 -1 -1 -1
          -1 -1 -1 -1 -1 -1
          -1 -1 -1 -1 -1 -1
          -1 -1 -1 -1 -1 -1
          -1 -1 -1 -1 -1 -1
          -1 -1 -1 -1 -1 -1
          -1 -1 -1 -1 -1 -1
          -1 -1 -1 -1 -1 -1
          -1 -1 -1 -1 -1 -1
          -1 -1 -1 -1 -1 -1
          -1 -1 -1 -1 -1 -1
          -1 -1 -1 -1 -1 -1
          -1 -1 -1 -1 -1 -1
          -1 -1 -1 -1 -1 -1
          -1 -1 -1 -1 -1 -1
          -1 -1 -1 -1 -1 -1
          -1 -1 -1 -1 -1 -1
          -1 -1 -1 -1 -1 -1
          -1 -1 -1 -1 -1 -1
          -1 -1 -1 -1 -1 -1
          -1 -1 -1 -1 -1 -1
          -1 -1 -1 -1 -1 -1
          -1 -1 -1 -1 -1 -1
          -1 -1 -1 -1 -1 -1
          -1 -1 -1 -1 -1 -1
          -1 -1 -1 -1 -1 -1
          -1 -1 -1 -1 -1 -1
          -1 -1 -1 -1 -1 -1
          -1 -1 -1 -1 -1 -1
          -1 -1 -1 -1 -1 -1
          -1 -1 -1 -1 -1 -1
          -1 -1 -1 -1 -1 -1
          -1 -1 -1 -1 -1 -1
          -1 -1 -1 -1 -1 -1
          -1 -1 -1 -1 -1 -1
          -1 -1 -1 -1 -1 -1
          -1 -1 -1 -1 -1 -1
          -1 -1 -1 -1 -1 -1
          -1 -1 -1 -1 -1 -1
          -1 -1 -1 -1 -1 -1
          -1 -1 -1 -1 -1 -1
          -1 -1 -1 -1 -1 -1
          -1 -1 -1 -1 -1 -1
          -1 -1 -1 -1 -1 -1
          -1 -1 -1 -1 -1 -1
          -1 -1 -1 -1 -1 -1
          -1 -1 -1 -1 -1 -1
          -1 -1 -1 -1 -1 -1
          -1 -1 -1 -1 -1 -1
          -1 -1 -1 -1 -1 -1
          -1 -1 -1 -1 -1 -1
          -1 -1 -1 -1 -1 -1
          -1 -1 -1 -1 -1 -1
          -1 -1 -1 -1 -1 -1
          -1 -1 -1 -1 -1 -1
          -1 -1 -1 -1 -1 -1
          -1 -1 -1 -1 -1 -1
          -1 -1 -1 -1 -1 -1
          -1 -1 -1 -1 -1 -1
          -1 -1 -1 -1 -1 -1
          -1 -1 -1 -1 -1 -1
          -1 -1 -1 -1 -1 -1
          -1 -1 -1 -1 -1 -1
          -1 -1 -1 -1 -1 -1
          -1 -1 -1 -1 -1 -1
          -1 -1 -1 -1 -1 -1
          -1 -1 -1 -1 -1 -1
          -1 -1 -1 -1 -1 -1
          -1 -1 -1 -1 -1 -1
          -1 -1 -1 -1 -1 -1
          -1 -1 -1 -1 -1 -1
          -1 -1 -1 -1 -1 -1
          -1 -1 -1 -1 -1 -1
          -1 -1 -1 -1 -1 -1
          -1 -1 -1 -1 -1 -1
          -1 -1 -1 -1 -1 -1
          -1 -1 -1 -1 -1 -1
          -1 -1 -1 -1 -1 -1
          -1 -1 -1 -1 -1 -1
          -1 -1 -1 -1 -1 -1
          -1 -1 -1 -1 -1 -1
          -1 -1 -1 -1 -1 -1
          -1 -1 -1 -1 -1 -1
          -1 -1 -1 -1 -1 -1
          -1 -1 -1 -1 -1 -1
          -1 -1 -1 -1 -1 -1
          -1 -1 -1 -1 -1 -1
          -1 -1 -1 -1 -1 -1
          -1 -1 -1 -1 -1 -1
          -1 -1 -1 -1 -1 -1
          -1 -1 -1 -1 -1 -1
          -1 -1 -1 -1 -1 -1
          -1 -1 -1 -1 -1 -1
          -1 -1 -1 -1 -1 -1
          -1 -1 -1 -1 -1 -1
          -1 -1 -1 -1 -1 -1
          -1 -1 -1 -1 -1 -1
          -1 -1 -1 -1 -1 -1
          -1 -1 -1 -1 -1 -1
          -1 -1 -1 -1 -1 -1
          -1 -1 -1 -1 -1 -1
          -1 -1 -1 -1 -1 -1
          -1 -1 -1 -1 -1 -1
          -1 -1 -1 -1 -1 -1
          -1 -1 -1 -1 -1 -1
          -1 -1 -1 -1 -1 -1
          -1 -1 -1 -1 -1 -1
          -1 -1 -1 -1 -1 -1
          -1 -1 -1 -1 -1 -1
          -1 -1 -1 -1 -1 -1
          -1 -1 -1 -1 -1 -1
          -1 -1 -1 -1 -1 -1
          -1 -1 -1 -1 -1 -1
          -1 -1 -1 -1 -1 -1
          -1 -1 -1 -1 -1 -1
          -1 -1 -1 -1 -1 -1
          -1 -1 -1 -1 -1 -1
          -1 -1 -1 -1 -1 -1
          -1 -1 -1 -1 -1 -1
          -1 -1 -1 -1 -1 -1
          -1
        </DataArray>
        <DataArray type="Float64" Name="_sub_domain_" format="ascii" RangeMin="0" RangeMax="0">
          0 0 0 0 0 0
          0 0 0 0 0 0
          0 0 0 0 0 0
          0 0 0 0 0 0
          0 0 0 0 0 0
          0 0 0 0 0 0
          0 0 0 0 0 0
          0 0 0 0 0 0
          0 0 0 0 0 0
          0 0 0 0 0 0
          0 0 0 0 0 0
          0 0 0 0 0 0
          0 0 0 0 0 0
          0 0 0 0 0 0
          0 0 0 0 0 0
          0 0 0 0 0 0
          0 0 0 0 0 0
          0 0 0 0 0 0
          0 0 0 0 0 0
          0 0 0 0 0 0
          0 0 0 0 0 0
          0 0 0 0 0 0
          0 0 0 0 0 0
          0 0 0 0 0 0
          0 0 0 0 0 0
          0 0 0 0 0 0
          0 0 0 0 0 0
          0 0 0 0 0 0
          0 0 0 0 0 0
          0 0 0 0 0 0
          0 0 0 0 0 0
          0 0 0 0 0 0
          0 0 0 0 0 0
          0 0 0 0 0 0
          0 0 0 0 0 0
          0 0 0 0 0 0
          0 0 0 0 0 0
          0 0 0 0 0 0
          0 0 0 0 0 0
          0 0 0 0 0 0
          0 0 0 0 0 0
          0 0 0 0 0 0
          0 0 0 0 0 0
          0 0 0 0 0 0
          0 0 0 0 0 0
          0 0 0 0 0 0
          0 0 0 0 0 0
          0 0 0 0 0 0
          0 0 0 0 0 0
          0 0 0 0 0 0
          0 0 0 0 0 0
          0 0 0 0 0 0
          0 0 0 0 0 0
          0 0 0 0 0 0
          0 0 0 0 0 0
          0 0 0 0 0 0
          0 0 0 0 0 0
          0 0 0 0 0 0
          0 0 0 0 0 0
          0 0 0 0 0 0
          0 0 0 0 0 0
          0 0 0 0 0 0
          0 0 0 0 0 0
          0 0 0 0 0 0
          0 0 0 0 0 0
          0 0 0 0 0 0
          0 0 0 0 0 0
          0 0 0 0 0 0
          0 0 0 0 0 0
          0 0 0 0 0 0
          0 0 0 0 0 0
          0 0 0 0 0 0
          0 0 0 0 0 0
          0 0 0 0 0 0
          0 0 0 0 0 0
          0 0 0 0 0 0
          0 0 0 0 0 0
          0 0 0 0 0 0
          0 0 0 0 0 0
          0 0 0 0 0 0
          0 0 0 0 0 0
          0 0 0 0 0 0
          0 0 0 0 0 0
          0 0 0 0 0 0
          0 0 0 0 0 0
          0 0 0 0 0 0
          0 0 0 0 0 0
          0 0 0 0 0 0
          0 0 0 0 0 0
          0 0 0 0 0 0
          0 0 0 0 0 0
          0 0 0 0 0 0
          0 0 0 0 0 0
          0 0 0 0 0 0
          0 0 0 0 0 0
          0 0 0 0 0 0
          0 0 0 0 0 0
          0 0 0 0 0 0
          0 0 0 0 0 0
          0 0 0 0 0 0
          0 0 0 0 0 0
          0 0 0 0 0 0
          0 0 0 0 0 0
          0 0 0 0 0 0
          0 0 0 0 0 0
          0 0 0 0 0 0
          0 0 0 0 0 0
          0 0 0 0 0 0
          0 0 0 0 0 0
          0 0 0 0 0 0
          0 0 0 0 0 0
          0 0 0 0 0 0
          0 0 0 0 0 0
          0 0 0 0 0 0
          0 0 0 0 0 0
          0 0 0 0 0 0
          0 0 0 0 0 0
          0 0 0 0 0 0
          0 0 0 0 0 0
          0 0 0 0 0 0
          0 0 0 0 0 0
          0 0 0 0 0 0
          0 0 0 0 0 0
          0 0 0 0 0 0
          0 0 0 0 0 0
          0 0 0 0 0 0
          0 0 0 0 0 0
          0 0 0 0 0 0
          0 0 0 0 0 0
          0 0 0 0 0 0
          0 0 0 0 0 0
          0 0 0 0 0 0
          0 0 0 0 0 0
          0 0 0 0 0 0
          0 0 0 0 0 0
          0 0 0 0 0 0
          0 0 0 0 0 0
          0 0 0 0 0 0
          0 0 0 0 0 0
          0 0 0 0 0 0
          0 0 0 0 0 0
          0 0 0 0 0 0
          0 0 0 0 0 0
          0 0 0 0 0 0
          0 0 0 0 0 0
          0 0 0 0 0 0
          0 0 0 0 0 0
          0 0 0 0 0 0
          0 0 0 0 0 0
          0 0 0 0 0 0
          0 0 0 0 0 0
          0 0 0 0 0 0
          0 0 0 0 0 0
          0 0 0 0 0 0
          0 0 0 0 0 0
          0 0 0 0 0 0
          0 0 0 0 0 0
          0 0 0 0 0 0
          0 0 0 0 0 0
          0 0 0 0 0 0
          0 0 0 0 0 0
          0 0 0 0 0 0
          0 0 0 0 0 0
          0 0 0 0 0 0
          0 0 0 0 0 0
          0 0 0 0 0 0
          0 0 0 0 0 0
          0 0 0 0 0 0
          0 0 0 0 0 0
          0 0 0 0 0 0
          0 0 0 0 0 0
          0 0 0 0 0 0
          0 0 0 0 0 0
          0 0 0 0 0 0
          0 0 0 0 0 0
          0 0 0 0 0 0
          0 0 0 0 0 0
          0 0 0 0 0 0
          0 0 0 0 0 0
          0 0 0 0 0 0
          0 0 0 0 0 0
          0 0 0 0 0 0
          0 0 0 0 0 0
          0 0 0 0 0 0
          0 0 0 0 0 0
          0 0 0 0 0 0
          0 0 0 0 0 0
          0 0 0 0 0 0
          0 0 0 0 0 0
          0 0 0 0 0 0
          0 0 0 0 0 0
          0 0 0 0 0 0
          0 0 0 0 0 0
          0 0 0 0 0 0
          0 0 0 0 0 0
          0 0 0 0 0 0
          0 0 0 0 0 0
          0 0 0 0 0 0
          0 0 0 0 0 0
          0 0 0 0 0 0
          0 0 0 0 0 0
          0 0 0 0 0 0
          0 0 0 0 0 0
          0 0 0 0 0 0
          0 0 0 0 0 0
          0 0 0 0 0 0
          0 0 0 0 0 0
          0 0 0 0 0 0
          0 0 0 0 0 0
          0 0 0 0 0 0
          0 0 0 0 0 0
          0 0 0 0 0 0
          0 0 0 0 0 0
          0 0 0 0 0 0
          0 0 0 0 0 0
          0 0 0 0 0 0
          0 0 0 0 0 0
          0 0 0 0 0 0
          0 0 0 0 0 0
          0 0 0 0 0 0
          0 0 0 0 0 0
          0 0 0 0 0 0
          0 0 0 0 0 0
          0 0 0 0 0 0
          0 0 0 0 0 0
          0 0 0 0 0 0
          0 0 0 0 0 0
          0 0 0 0 0 0
          0 0 0 0 0 0
          0 0 0 0 0 0
          0 0 0 0 0 0
          0 0 0 0 0 0
          0 0 0 0 0 0
          0 0 0 0 0 0
          0 0 0 0 0 0
          0 0 0 0 0 0
          0 0 0 0 0 0
          0 0 0 0 0 0
          0 0 0 0 0 0
          0 0 0 0 0 0
          0 0 0 0 0 0
          0 0 0 0 0 0
          0 0 0 0 0 0
          0 0 0 0 0 0
          0 0 0 0 0 0
          0 0 0 0 0 0
          0 0 0 0 0 0
          0 0 0 0 0 0
          0 0 0 0 0 0
          0 0 0 0 0 0
          0 0 0 0 0 0
          0 0 0 0 0 0
          0 0 0 0 0 0
          0 0 0 0 0 0
          0 0 0 0 0 0
          0 0 0 0 0 0
          0 0 0 0 0 0
          0 0 0 0 0 0
          0 0 0 0 0 0
          0 0 0 0 0 0
          0 0 0 0 0 0
          0 0 0 0 0 0
          0 0 0 0 0 0
          0 0 0 0 0 0
          0 0 0 0 0 0
          0 0 0 0 0 0
          0 0 0 0 0 0
          0 0 0 0 0 0
          0 0 0 0 0 0
          0 0 0 0 0 0
          0 0 0 0 0 0
          0 0 0 0 0 0
          0 0 0 0 0 0
          0 0 0 0 0 0
          0 0 0 0 0 0
          0 0 0 0 0 0
          0 0 0 0 0 0
          0 0 0 0 0 0
          0 0 0 0 0 0
          0 0 0 0 0 0
          0 0 0 0 0 0
          0 0 0 0 0 0
          0 0 0 0 0 0
          0 0 0 0 0 0
          0 0 0 0 0 0
          0 0 0 0 0 0
          0 0 0 0 0 0
          0 0 0 0 0 0
          0 0 0 0 0 0
          0 0 0 0 0 0
          0 0 0 0 0 0
          0 0 0 0 0 0
          0 0 0 0 0 0
          0 0 0 0 0 0
          0 0 0 0 0 0
          0 0 0 0 0 0
          0 0 0 0 0 0
          0 0 0 0 0 0
          0 0 0 0 0 0
          0 0 0 0 0 0
          0 0 0 0 0 0
          0 0 0 0 0 0
          0 0 0 0 0 0
          0 0 0 0 0 0
          0 0 0 0 0 0
          0 0 0 0 0 0
          0 0 0 0 0 0
          0 0 0 0 0 0
          0 0 0 0 0 0
          0 0 0 0 0 0
          0 0 0 0 0 0
          0 0 0 0 0 0
          0 0 0 0 0 0
          0 0 0 0 0 0
          0 0 0 0 0 0
          0 0 0 0 0 0
          0 0 0 0 0 0
          0 0 0 0 0 0
          0 0 0 0 0 0
          0 0 0 0 0 0
          0 0 0 0 0 0
          0 0 0 0 0 0
          0 0 0 0 0 0
          0 0 0 0 0 0
          0 0 0 0 0 0
          0 0 0 0 0 0
          0 0 0 0 0 0
          0 0 0 0 0 0
          0 0 0 0 0 0
          0 0 0 0 0 0
          0 0 0 0 0 0
          0 0 0 0 0 0
          0 0 0 0 0 0
          0 0 0 0 0 0
          0 0 0 0 0 0
          0 0 0 0 0 0
          0 0 0 0 0 0
          0 0 0 0 0 0
          0 0 0 0 0 0
          0 0 0 0 0 0
          0 0 0 0 0 0
          0 0 0 0 0 0
          0 0 0 0 0 0
          0 0 0 0 0 0
          0 0 0 0 0 0
          0 0 0 0 0 0
          0 0 0 0 0 0
          0 0 0 0 0 0
          0 0 0 0 0 0
          0 0 0 0 0 0
          0 0 0 0 0 0
          0 0 0 0 0 0
          0 0 0 0 0 0
          0 0 0 0 0 0
          0 0 0 0 0 0
          0 0 0 0 0 0
          0 0 0 0 0 0
          0 0 0 0 0 0
          0 0 0 0 0 0
          0 0 0 0 0 0
          0 0 0 0 0 0
          0 0 0 0 0 0
          0 0 0 0 0 0
          0 0 0 0 0 0
          0 0 0 0 0 0
          0 0 0 0 0 0
          0 0 0 0 0 0
          0 0 0 0 0 0
          0 0 0 0 0 0
          0 0 0 0 0 0
          0 0 0 0 0 0
          0 0 0 0 0 0
          0 0 0 0 0 0
          0 0 0 0 0 0
          0 0 0 0 0 0
          0 0 0 0 0 0
          0 0 0 0 0 0
          0 0 0 0 0 0
          0 0 0 0 0 0
          0 0 0 0 0 0
          0 0 0 0 0 0
          0 0 0 0 0 0
          0 0 0 0 0 0
          0 0 0 0 0 0
          0 0 0 0 0 0
          0 0 0 0 0 0
          0 0 0 0 0 0
          0 0 0 0 0 0
          0 0 0 0 0 0
          0 0 0 0 0 0
          0 0 0 0 0 0
          0 0 0 0 0 0
          0 0 0 0 0 0
          0 0 0 0 0 0
          0 0 0 0 0 0
          0 0 0 0 0 0
          0 0 0 0 0 0
          0 0 0 0 0 0
          0 0 0 0 0 0
          0 0 0 0 0 0
          0 0 0 0 0 0
          0 0 0 0 0 0
          0 0 0 0 0 0
          0 0 0 0 0 0
          0 0 0 0 0 0
          0 0 0 0 0 0
          0 0 0 0 0 0
          0 0 0 0 0 0
          0 0 0 0 0 0
          0 0 0 0 0 0
          0 0 0 0 0 0
          0 0 0 0 0 0
          0 0 0 0 0 0
          0 0 0 0 0 0
          0 0 0 0 0 0
          0 0 0 0 0 0
          0 0 0 0 0 0
          0 0 0 0 0 0
          0 0 0 0 0 0
          0 0 0 0 0 0
          0 0 0 0 0 0
          0 0 0 0 0 0
          0 0 0 0 0 0
          0 0 0 0 0 0
          0 0 0 0 0 0
          0 0 0 0 0 0
          0 0 0 0 0 0
          0 0 0 0 0 0
          0 0 0 0 0 0
          0 0 0 0 0 0
          0 0 0 0 0 0
          0 0 0 0 0 0
          0 0 0 0 0 0
          0 0 0 0 0 0
          0 0 0 0 0 0
          0 0 0 0 0 0
          0 0 0 0 0 0
          0 0 0 0 0 0
          0 0 0 0 0 0
          0 0 0 0 0 0
          0 0 0 0 0 0
          0 0 0 0 0 0
          0 0 0 0 0 0
          0 0 0 0 0 0
          0 0 0 0 0 0
          0 0 0 0 0 0
          0 0 0 0 0 0
          0 0 0 0 0 0
          0 0 0 0 0 0
          0 0 0 0 0 0
          0 0 0 0 0 0
          0 0 0 0 0 0
          0 0 0 0 0 0
          0 0 0 0 0 0
          0 0 0 0 0 0
          0 0 0 0 0 0
          0 0 0 0 0 0
          0 0 0 0 0 0
          0 0 0 0 0 0
          0 0 0 0 0 0
          0 0 0 0 0 0
          0 0 0 0 0 0
          0 0 0 0 0 0
          0 0 0 0 0 0
          0 0 0 0 0 0
          0 0 0 0 0 0
          0 0 0 0 0 0
          0 0 0 0 0 0
          0 0 0 0 0 0
          0 0 0 0 0 0
          0 0 0 0 0 0
          0 0 0 0 0 0
          0 0 0 0 0 0
          0 0 0 0 0 0
          0 0 0 0 0 0
          0 0 0 0 0 0
          0 0 0 0 0 0
          0 0 0 0 0 0
          0 0 0 0 0 0
          0 0 0 0 0 0
          0 0 0 0 0 0
          0 0 0 0 0 0
          0 0 0 0 0 0
          0 0 0 0 0 0
          0 0 0 0 0 0
          0 0 0 0 0 0
          0 0 0 0 0 0
          0 0 0 0 0 0
          0 0 0 0 0 0
          0 0 0 0 0 0
          0 0 0 0 0 0
          0 0 0 0 0 0
          0 0 0 0 0 0
          0 0 0 0 0 0
          0 0 0 0 0 0
          0 0 0 0 0 0
          0 0 0 0 0 0
          0 0 0 0 0 0
          0 0 0 0 0 0
          0 0 0 0 0 0
          0 0 0 0 0 0
          0 0 0 0 0 0
          0 0 0 0 0 0
          0 0 0 0 0 0
          0 0 0 0 0 0
          0 0 0 0 0 0
          0 0 0 0 0 0
          0 0 0 0 0 0
          0 0 0 0 0 0
          0 0 0 0 0 0
          0 0 0 0 0 0
          0 0 0 0 0 0
          0 0 0 0 0 0
          0 0 0 0 0 0
          0 0 0 0 0 0
          0 0 0 0 0 0
          0 0 0 0 0 0
          0 0 0 0 0 0
          0 0 0 0 0 0
          0 0 0 0 0 0
          0 0 0 0 0 0
          0 0 0 0 0 0
          0 0 0 0 0 0
          0 0 0 0 0 0
          0 0 0 0 0 0
          0 0 0 0 0 0
          0 0 0 0 0 0
          0 0 0 0 0 0
          0 0 0 0 0 0
          0 0 0 0 0 0
          0 0 0 0 0 0
          0 0 0 0 0 0
          0 0 0 0 0 0
          0 0 0 0 0 0
          0 0 0 0 0 0
          0 0 0 0 0 0
          0 0 0 0 0 0
          0 0 0 0 0 0
          0 0 0 0 0 0
          0 0 0 0 0 0
          0 0 0 0 0 0
          0 0 0 0 0 0
          0 0 0 0 0 0
          0 0 0 0 0 0
          0 0 0 0 0 0
          0 0 0 0 0 0
          0 0 0 0 0 0
          0 0 0 0 0 0
          0 0 0 0 0 0
          0 0 0 0 0 0
          0 0 0 0 0 0
          0 0 0 0 0 0
          0 0 0 0 0 0
          0 0 0 0 0 0
          0 0 0 0 0 0
          0 0 0 0 0 0
          0 0 0 0 0 0
          0 0 0 0 0 0
          0 0 0 0 0 0
          0 0 0 0 0 0
          0 0 0 0 0 0
          0 0 0 0 0 0
          0 0 0 0 0 0
          0 0 0 0 0 0
          0 0 0 0 0 0
          0 0 0 0 0 0
          0 0 0 0 0 0
          0 0 0 0 0 0
          0 0 0 0 0 0
          0 0 0 0 0 0
          0 0 0 0 0 0
          0 0 0 0 0 0
          0 0 0 0 0 0
          0 0 0 0 0 0
          0 0 0 0 0 0
          0 0 0 0 0 0
          0 0 0 0 0 0
          0 0 0 0 0 0
          0 0 0 0 0 0
          0 0 0 0 0 0
          0 0 0 0 0 0
          0 0 0 0 0 0
          0 0 0 0 0 0
          0 0 0 0 0 0
          0 0 0 0 0 0
          0 0 0 0 0 0
          0 0 0 0 0 0
          0 0 0 0 0 0
          0 0 0 0 0 0
          0 0 0 0 0 0
          0 0 0 0 0 0
          0 0 0 0 0 0
          0 0 0 0 0 0
          0 0 0 0 0 0
          0 0 0 0 0 0
          0 0 0 0 0 0
          0 0 0 0 0 0
          0 0 0 0 0 0
          0 0 0 0 0 0
          0 0 0 0 0 0
          0 0 0 0 0 0
          0 0 0 0 0 0
          0 0 0 0 0 0
          0 0 0 0 0 0
          0 0 0 0 0 0
          0 0 0 0 0 0
          0 0 0 0 0 0
          0 0 0 0 0 0
          0 0 0 0 0 0
          0 0 0 0 0 0
          0 0 0 0 0 0
          0 0 0 0 0 0
          0 0 0 0 0 0
          0 0 0 0 0 0
          0 0 0 0 0 0
          0 0 0 0 0 0
          0 0 0 0 0 0
          0 0 0 0 0 0
          0 0 0 0 0 0
          0 0 0 0 0 0
          0 0 0 0 0 0
          0 0 0 0 0 0
          0 0 0 0 0 0
          0 0 0 0 0 0
          0 0 0 0 0 0
          0 0 0 0 0 0
          0 0 0 0 0 0
          0 0 0 0 0 0
          0 0 0 0 0 0
          0 0 0 0 0 0
          0 0 0 0 0 0
          0 0 0 0 0 0
          0 0 0 0 0 0
          0 0 0 0 0 0
          0 0 0 0 0 0
          0 0 0 0 0 0
          0 0 0 0 0 0
          0 0 0 0 0 0
          0 0 0 0 0 0
          0 0 0 0 0 0
          0 0 0 0 0 0
          0 0 0 0 0 0
          0 0 0 0 0 0
          0 0 0 0 0 0
          0 0 0 0 0 0
          0 0 0 0 0 0
          0 0 0 0 0 0
          0 0 0 0 0 0
          0 0 0 0 0 0
          0 0 0 0 0 0
          0 0 0 0 0 0
          0 0 0 0 0 0
          0 0 0 0 0 0
          0 0 0 0 0 0
          0 0 0 0 0 0
          0 0 0 0 0 0
          0 0 0 0 0 0
          0 0 0 0 0 0
          0 0 0 0 0 0
          0 0 0 0 0 0
          0 0 0 0 0 0
          0 0 0 0 0 0
          0 0 0 0 0 0
          0 0 0 0 0 0
          0 0 0 0 0 0
          0 0 0 0 0 0
          0 0 0 0 0 0
          0 0 0 0 0 0
          0 0 0 0 0 0
          0 0 0 0 0 0
          0 0 0 0 0 0
          0 0 0 0 0 0
          0 0 0 0 0 0
          0 0 0 0 0 0
          0 0 0 0 0 0
          0 0 0 0 0 0
          0 0 0 0 0 0
          0 0 0 0 0 0
          0 0 0 0 0 0
          0 0 0 0 0 0
          0 0 0 0 0 0
          0 0 0 0 0 0
          0 0 0 0 0 0
          0 0 0 0 0 0
          0 0 0 0 0 0
          0 0 0 0 0 0
          0 0 0 0 0 0
          0 0 0 0 0 0
          0 0 0 0 0 0
          0 0 0 0 0 0
          0 0 0 0 0 0
          0 0 0 0 0 0
          0 0 0 0 0 0
          0 0 0 0 0 0
          0 0 0 0 0 0
          0 0 0 0 0 0
          0 0 0 0 0 0
          0 0 0 0 0 0
          0 0 0 0 0 0
          0 0 0 0 0 0
          0 0 0 0 0 0
          0 0 0 0 0 0
          0 0 0 0 0 0
          0 0 0 0 0 0
          0 0 0 0 0 0
          0 0 0 0 0 0
          0 0 0 0 0 0
          0 0 0 0 0 0
          0 0 0 0 0 0
          0 0 0 0 0 0
          0 0 0 0 0 0
          0 0 0 0 0 0
          0 0 0 0 0 0
          0 0 0 0 0 0
          0 0 0 0 0 0
          0 0 0 0 0 0
          0 0 0 0 0 0
          0 0 0 0 0 0
          0 0 0 0 0 0
          0 0 0 0 0 0
          0 0 0 0 0 0
          0 0 0 0 0 0
          0 0 0 0 0 0
          0 0 0 0 0 0
          0 0 0 0 0 0
          0 0 0 0 0 0
          0 0 0 0 0 0
          0 0 0 0 0 0
          0 0 0 0 0 0
          0 0 0 0 0 0
          0 0 0 0 0 0
          0 0 0 0 0 0
          0 0 0 0 0 0
          0 0 0 0 0 0
          0 0 0 0 0 0
          0 0 0 0 0 0
          0 0 0 0 0 0
          0 0 0 0 0 0
          0 0 0 0 0 0
          0 0 0 0 0 0
          0 0 0 0 0 0
          0 0 0 0 0 0
          0 0 0 0 0 0
          0 0 0 0 0 0
          0 0 0 0 0 0
          0 0 0 0 0 0
          0 0 0 0 0 0
          0 0 0 0 0 0
          0 0 0 0 0 0
          0 0 0 0 0 0
          0 0 0 0 0 0
          0 0 0 0 0 0
          0 0 0 0 0 0
          0 0 0 0 0 0
          0 0 0 0 0 0
          0 0 0 0 0 0
          0 0 0 0 0 0
          0 0 0 0 0 0
          0 0 0 0 0 0
          0 0 0 0 0 0
          0 0 0 0 0 0
          0 0 0 0 0 0
          0 0 0 0 0 0
          0 0 0 0 0 0
          0 0 0 0 0 0
          0 0 0 0 0 0
          0 0 0 0 0 0
          0 0 0 0 0 0
          0 0 0 0 0 0
          0 0 0 0 0 0
          0 0 0 0 0 0
          0 0 0 0 0 0
          0 0 0 0 0 0
          0 0 0 0 0 0
          0 0 0 0 0 0
          0 0 0 0 0 0
          0 0 0 0 0 0
          0 0 0 0 0 0
          0 0 0 0 0 0
          0 0 0 0 0 0
          0 0 0 0 0 0
          0 0 0 0 0 0
          0 0 0 0 0 0
          0 0 0 0 0 0
          0 0 0 0 0 0
          0 0 0 0 0 0
          0 0 0 0 0 0
          0 0 0 0 0 0
          0 0 0 0 0 0
          0 0 0 0 0 0
          0 0 0 0 0 0
          0 0 0 0 0 0
          0 0 0 0 0 0
          0 0 0 0 0 0
          0 0 0 0 0 0
          0 0 0 0 0 0
          0 0 0 0 0 0
          0 0 0 0 0 0
          0 0 0 0 0 0
          0 0 0 0 0 0
          0 0 0 0 0 0
          0 0 0 0 0 0
          0 0 0 0 0 0
          0 0 0 0 0 0
          0 0 0 0 0 0
          0 0 0 0 0 0
          0 0 0 0 0 0
          0 0 0 0 0 0
          0 0 0 0 0 0
          0 0 0 0 0 0
          0 0 0 0 0 0
          0 0 0 0 0 0
          0 0 0 0 0 0
          0 0 0 0 0 0
          0 0 0 0 0 0
          0 0 0 0 0 0
          0 0 0 0 0 0
          0 0 0 0 0 0
          0 0 0 0 0 0
          0 0 0 0 0 0
          0 0 0 0 0 0
          0 0 0 0 0 0
          0 0 0 0 0 0
          0 0 0 0 0 0
          0 0 0 0 0 0
          0 0 0 0 0 0
          0 0 0 0 0 0
          0 0 0 0 0 0
          0 0 0 0 0 0
          0 0 0 0 0 0
          0 0 0 0 0 0
          0 0 0 0 0 0
          0 0 0 0 0 0
          0 0 0 0 0 0
          0 0 0 0 0 0
          0 0 0 0 0 0
          0 0 0 0 0 0
          0 0 0 0 0 0
          0 0 0 0 0 0
          0 0 0 0 0 0
          0 0 0 0 0 0
          0 0 0 0 0 0
          0 0 0 0 0 0
          0 0 0 0 0 0
          0 0 0 0 0 0
          0 0 0 0 0 0
          0 0 0 0 0 0
          0 0 0 0 0 0
          0 0 0 0 0 0
          0 0 0 0 0 0
          0 0 0 0 0 0
          0 0 0 0 0 0
          0 0 0 0 0 0
          0 0 0 0 0 0
          0 0 0 0 0 0
          0 0 0 0 0 0
          0 0 0 0 0 0
          0 0 0 0 0 0
          0 0 0 0 0 0
          0 0 0 0 0 0
          0 0 0 0 0 0
          0 0 0 0 0 0
          0 0 0 0 0 0
          0 0 0 0 0 0
          0 0 0 0 0 0
          0 0 0 0 0 0
          0 0 0 0 0 0
          0 0 0 0 0 0
          0 0 0 0 0 0
          0 0 0 0 0 0
          0 0 0 0 0 0
          0 0 0 0 0 0
          0 0 0 0 0 0
          0 0 0 0 0 0
          0 0 0 0 0 0
          0 0 0 0 0 0
          0 0 0 0 0 0
          0 0 0 0 0 0
          0 0 0 0 0 0
          0 0 0 0 0 0
          0 0 0 0 0 0
          0 0 0 0 0 0
          0 0 0 0 0 0
          0 0 0 0 0 0
          0 0 0 0 0 0
          0 0 0 0 0 0
          0 0 0 0 0 0
          0 0 0 0 0 0
          0 0 0 0 0 0
          0 0 0 0 0 0
          0 0 0 0 0 0
          0 0 0 0 0 0
          0 0 0 0 0 0
          0 0 0 0 0 0
          0 0 0 0 0 0
          0 0 0 0 0 0
          0 0 0 0 0 0
          0 0 0 0 0 0
          0 0 0 0 0 0
          0 0 0 0 0 0
          0 0 0 0 0 0
          0 0 0 0 0 0
          0 0 0 0 0 0
          0 0 0 0 0 0
          0 0 0 0 0 0
          0 0 0 0 0 0
          0 0 0 0 0 0
          0 0 0 0 0 0
          0 0 0 0 0 0
          0 0 0 0 0 0
          0 0 0 0 0 0
          0
        </DataArray>
        <DataArray type="Float64" Name="ScalarGradient" NumberOfComponents="3" format="ascii" RangeMin="0" RangeMax="0">
          0 0 0 0 0 0
          0 0 0 0 0 0
          0 0 0 0 -0 0
          0 0 0 0 0 0
          0 0 0 0 0 0
          -0 0 0 0 0 0
          0 0 0 0 0 0
          0 0 0 0 0 0
          0 0 0 0 0 0
          0 0 0 0 0 0
          0 -0 0 -0 0 0
          -0 0 0 0 0 0
          0 0 0 0 0 0
          0 0 0 0 0 0
          0 0 0 0 0 0
          0 0 0 0 0 0
          0 0 0 0 0 0
          0 0 0 0 0 0
          0 0 0 0 0 0
          0 0 0 0 0 0
          0 0 0 0 0 0
          0 0 0 -0 0 0
          0 0 0 0 0 0
          0 0 0 0 -0 0
          0 0 0 -0 0 0
          0 0 0 0 0 0
          0 0 0 0 0 0
          0 0 0 0 0 0
          0 0 0 0 0 0
          0 0 0 0 0 0
          0 0 0 0 0 0
          0 0 0 0 0 0
          0 0 0 0 0 0
          0 0 0 0 0 0
          0 -0 0 0 0 0
          0 0 -0 0 0 0
          0 0 0 0 0 0
          0 0 0 0 -0 0
          0 0 0 0 0 0
          0 0 0 0 0 0
          0 0 0 0 0 0
          0 0 0 0 0 0
          0 0 0 0 0 0
          -0 0 0 0 0 0
          0 0 0 0 0 0
          0 0 0 0 0 0
          0 0 0 0 0 0
          0 0 0 0 0 0
          0 -0 0 0 0 0
          0 -0 0 0 0 0
          0 0 0 0 0 0
          0 0 0 0 0 0
          0 0 0 0 0 0
          0 -0 0 0 -0 0
          0 0 0 0 0 -0
          0 0 0 0 -0 0
          0 0 0 0 0 -0
          0 0 0 0 0 0
          0 0 0 0 0 0
          0 0 0 0 -0 0
          0 0 -0 0 0 0
          0 0 0 0 0 0
          0 0 0 0 0 0
          0 0 0 0 0 0
          0 0 0 0 0 0
          0 0 -0 0 0 0
          0 0 0 0 0 0
          0 0 0 0 0 0
          0 0 0 0 0 0
          0 0 0 -0 0 0
          0 0 0 0 0 0
          0 0 0 0 0 0
          0 -0 0 0 0 0
          0 0 0 0 0 0
          0 -0 0 0 0 0
          0 0 0 0 0 0
          0 0 -0 0 0 0
          0 0 0 0 0 0
          0 -0 0 0 0 0
          0 0 0 0 0 0
          0 0 0 0 0 0
          0 0 0 0 0 0
          0 0 0 0 0 0
          0 0 0 0 0 0
          -0 0 0 0 0 0
          0 0 0 0 0 0
          0 0 0 0 0 0
          0 0 0 0 0 0
          0 0 0 0 0 0
          -0 0 0 0 0 0
          0 0 0 0 0 0
          0 0 0 0 0 0
          0 -0 0 0 -0 0
          -0 0 0 0 0 0
          0 0 0 0 0 0
          0 0 0 0 0 0
          0 0 0 0 0 0
          0 0 0 0 0 0
          0 0 0 0 0 0
          0 -0 0 0 0 0
          0 0 0 0 0 0
          0 0 0 0 0 0
          0 -0 0 0 0 0
          0 0 0 0 0 0
          0 0 0 0 0 0
          0 0 0 -0 0 0
          0 0 0 0 0 0
          0 0 0 0 0 0
          0 0 0 0 0 0
          0 0 0 0 0 0
          0 -0 0 0 0 0
          0 0 0 0 0 0
          0 0 0 0 0 0
          0 0 0 0 0 0
          0 -0 0 0 0 0
          0 0 0 -0 0 0
          0 0 0 0 0 0
          0 0 0 0 0 0
          0 0 0 0 0 0
          0 0 0 0 0 0
          0 -0 0 0 0 0
          0 0 0 0 0 0
          0 0 0 0 0 0
          0 0 0 0 -0 0
          0 -0 0 0 0 0
          0 0 0 0 0 0
          0 0 0 0 0 0
          -0 0 0 0 0 0
          0 0 0 0 0 0
          0 0 0 0 -0 0
          0 0 0 0 0 0
          0 0 0 -0 0 0
          0 0 -0 0 0 0
          0 0 0 0 0 0
          0 0 0 0 0 0
          0 0 0 0 0 0
          0 0 -0 0 0 0
          0 0 0 0 0 0
          0 0 0 0 0 0
          0 0 0 0 0 0
          0 0 0 -0 0 0
          0 0 0 0 0 0
          0 0 0 0 0 0
          0 -0 0 -0 0 0
          0 0 0 -0 0 0
          0 0 0 0 0 0
          0 0 0 0 0 0
          0 0 0 0 0 0
          0 0 0 0 0 0
          0 0 0 0 0 0
          0 0 0 0 0 0
          0 0 0 0 0 0
          0 0 0 0 0 0
          0 0 0 0 0 -0
          -0 0 0 0 0 0
          -0 0 0 0 0 0
          0 0 0 0 0 0
          0 0 0 0 -0 0
          0 0 0 -0 0 0
          0 0 0 -0 0 0
          0 0 0 0 0 0
          0 0 0 0 0 0
          0 0 0 0 0 0
          0 0 0 0 -0 0
          0 0 0 0 0 0
          0 0 -0 0 0 0
          0 0 0 0 0 0
          0 0 0 0 0 0
          0 0 0 0 0 0
          -0 0 0 0 0 -0
          0 0 0 0 -0 0
          0 0 0 0 0 0
          0 0 0 0 0 -0
          0 0 0 0 0 0
          0 0 0 0 0 0
          0 0 0 0 0 0
          -0 0 0 0 0 0
          0 0 0 -0 0 0
          0 0 0 0 0 0
          0 0 0 0 0 0
          0 0 0 0 0 0
          0 0 0 0 0 0
          0 0 0 0 0 0
          0 0 0 0 0 0
          0 0 0 0 0 0
          0 0 0 0 0 0
          -0 0 0 0 0 0
          0 0 0 0 -0 0
          0 0 0 0 0 0
          0 0 -0 0 0 0
          0 0 0 0 0 0
          -0 0 0 0 0 -0
          0 0 0 0 0 0
          0 0 0 0 0 0
          0 -0 0 0 0 0
          0 0 0 0 0 0
          0 0 0 0 0 -0
          0 0 0 0 0 0
          0 0 -0 0 0 0
          0 0 0 0 0 0
          0 0 0 0 0 -0
          0 0 0 0 -0 0
          0 0 0 0 0 0
          0 -0 0 0 0 0
          0 0 0 0 0 0
          0 0 0 0 0 0
          0 0 0 0 0 0
          0 0 0 0 0 0
          0 0 0 0 0 0
          0 0 0 0 0 0
          0 0 0 0 0 0
          0 0 0 0 0 -0
          0 0 0 -0 0 0
          0 0 0 0 0 0
          -0 0 0 0 0 0
          0 0 0 0 0 -0
          -0 -0 0 0 0 0
          0 0 0 0 0 0
          0 0 0 0 0 0
          0 0 0 0 -0 0
          0 0 0 0 0 0
          0 0 0 0 0 0
          0 0 0 0 0 0
          0 0 0 0 0 0
          -0 0 0 0 0 0
          0 0 0 0 0 0
          0 0 0 0 0 0
          0 -0 0 0 0 -0
          0 0 0 -0 0 0
          0 0 -0 0 0 0
          0 0 0 0 0 0
          0 0 0 0 -0 0
          0 -0 0 0 0 0
          0 0 0 0 0 0
          0 0 0 0 0 0
          0 0 0 0 0 0
          0 0 0 0 0 0
          0 0 0 0 -0 0
          0 0 0 0 0 0
          0 0 0 0 0 0
          0 0 0 0 0 0
          0 0 0 0 0 -0
          0 0 0 0 0 0
          0 0 0 0 0 0
          0 0 0 -0 0 0
          0 0 0 0 0 0
          0 0 0 0 0 0
          0 0 0 0 -0 0
          0 0 0 0 0 0
          0 0 0 0 0 0
          0 0 0 0 0 0
          0 0 0 0 0 -0
          0 0 0 0 0 0
          0 0 0 0 0 0
          0 0 0 0 0 0
          0 0 0 -0 0 0
          0 0 0 0 0 0
          0 0 0 0 0 0
          0 0 0 -0 0 0
          0 0 0 0 0 0
          0 0 0 0 0 0
          0 0 0 0 0 -0
          0 0 0 0 0 0
          0 0 0 0 0 0
          0 0 0 0 0 0
          0 0 0 0 0 0
          0 0 0 0 0 0
          0 0 0 0 0 0
          0 0 0 0 0 0
          0 0 0 0 0 0
          0 0 0 0 0 0
          0 0 0 0 0 0
          0 0 0 0 0 0
          0 -0 0 0 0 0
          0 0 0 0 0 0
          0 0 0 0 0 0
          0 0 0 0 0 0
          -0 0 0 0 0 0
          0 0 0 0 0 0
          0 -0 0 0 -0 0
          0 0 0 -0 0 0
          0 0 0 0 0 0
          0 0 0 0 0 0
          -0 0 0 0 0 0
          0 0 0 -0 0 0
          0 0 0 0 0 0
          0 0 0 0 0 0
          0 0 0 0 0 0
          0 0 0 0 0 0
          -0 0 0 0 0 0
          0 0 0 0 0 0
          0 0 0 0 0 0
          0 0 0 -0 0 0
          0 0 0 0 0 0
          0 0 0 0 0 0
          0 0 0 0 0 0
          0 0 0 0 0 0
          0 0 0 0 0 0
          0 0 0 0 0 0
          0 0 0 0 0 -0
          0 0 0 0 0 0
          0 0 0 0 0 0
          0 0 0 0 0 0
          0 0 0 0 -0 0
          0 0 0 -0 0 0
          0 0 0 0 0 0
          0 0 0 0 0 0
          0 0 0 0 -0 0
          0 -0 0 0 0 0
          0 0 -0 0 0 0
          0 0 0 0 0 0
          0 0 0 0 0 0
          0 0 0 -0 0 0
          0 -0 0 -0 0 0
          0 0 0 0 0 0
          0 0 0 0 0 0
          0 0 0 0 0 0
          0 0 0 0 0 0
          0 0 0 -0 0 0
          0 0 0 0 0 0
          0 -0 0 0 0 0
          0 0 0 0 0 0
          0 0 0 0 0 0
          0 0 0 0 0 0
          0 0 -0 -0 0 0
          0 0 -0 0 0 0
          0 0 0 -0 0 0
          0 0 0 0 0 0
          0 0 0 0 0 0
          0 0 0 0 0 0
          0 -0 0 0 0 0
          0 0 0 0 0 0
          0 0 0 0 0 0
          0 0 0 0 -0 0
          -0 0 0 0 0 0
          0 0 0 -0 0 0
          0 0 0 -0 0 0
          0 0 0 0 0 0
          0 0 0 0 0 0
          0 0 0 0 0 0
          0 0 0 0 0 0
          0 0 0 0 0 0
          0 0 0 0 0 0
          0 0 0 -0 0 0
          0 0 0 0 0 0
          0 0 0 0 0 0
          0 0 0 0 0 0
          0 0 0 0 0 0
          0 0 0 0 0 0
          0 0 0 0 0 0
          0 0 0 0 0 0
          0 0 0 0 0 0
          0 0 0 0 0 0
          0 0 0 -0 0 0
          0 0 0 0 0 0
          0 0 0 0 -0 0
          0 0 0 0 0 0
          0 0 0 -0 0 0
          0 0 0 0 0 0
          0 0 0 0 0 0
          0 0 0 -0 0 0
          0 0 0 -0 0 0
          0 0 0 0 0 0
          0 0 0 -0 0 0
          0 0 0 0 0 0
          0 0 0 0 0 0
          -0 0 0 0 0 0
          -0 0 -0 0 0 0
          -0 0 0 0 0 0
          0 0 0 0 0 0
          0 0 0 0 0 0
          -0 0 0 0 0 0
          0 0 -0 0 0 0
          0 0 0 0 -0 0
          0 0 0 0 0 0
          0 0 0 0 0 0
          0 0 0 0 0 0
          0 0 0 0 0 0
          0 0 0 0 0 0
          0 0 0 0 0 0
          0 0 0 0 0 0
          0 0 0 0 0 0
          0 0 0 0 0 0
          0 0 0 0 0 0
          -0 0 0 0 0 0
          0 0 0 0 0 0
          0 0 0 0 0 0
          0 0 0 0 0 0
          0 0 0 0 0 0
          0 0 0 0 0 0
          0 0 0 0 0 0
          0 0 0 0 0 0
          0 0 0 0 0 0
          0 0 0 0 0 0
          0 0 0 0 0 0
          0 0 0 0 0 0
          0 0 0 0 0 -0
          0 0 0 0 0 0
          0 0 0 0 0 0
          -0 0 0 0 0 0
          0 0 0 -0 0 0
          0 0 0 0 0 0
          0 0 0 0 -0 0
          0 0 0 0 0 0
          -0 0 0 0 0 0
          0 0 0 -0 0 0
          0 0 0 0 0 0
          0 0 0 0 0 0
          0 0 0 0 0 0
          0 0 0 0 0 0
          0 0 0 0 0 0
          0 -0 0 0 0 0
          0 0 0 0 0 0
          0 0 0 0 0 0
          0 0 0 0 0 0
          -0 0 0 0 0 0
          0 0 0 0 0 0
          0 0 0 0 0 0
          0 0 0 0 0 0
          0 0 0 0 0 -0
          0 0 0 0 -0 0
          0 0 0 0 0 0
          0 0 0 0 0 -0
          0 0 0 0 0 0
          0 0 0 0 0 0
          0 0 0 0 0 0
          0 0 0 0 0 0
          0 0 0 0 0 0
          0 0 0 0 0 0
          0 0 0 0 0 0
          0 0 0 0 0 0
          0 0 0 0 0 -0
          0 0 0 0 0 0
          0 0 0 0 0 0
          0 0 0 0 -0 0
          0 0 0 0 -0 0
          0 0 0 0 0 0
          0 0 0 0 0 0
          0 0 0 0 0 0
          0 0 0 0 0 0
          0 0 0 0 0 0
          0 0 0 0 0 0
          0 0 0 0 0 0
          0 -0 0 0 0 0
          -0 0 0 -0 0 0
          0 -0 0 0 0 0
          0 0 0 0 0 0
          0 0 0 0 0 0
          0 0 0 0 -0 0
          0 0 0 0 0 0
          0 0 0 0 0 0
          0 0 0 0 0 0
          0 0 0 0 -0 0
          0 0 0 0 0 0
          0 0 0 0 0 0
          0 0 0 -0 0 0
          0 0 0 0 0 0
          0 0 0 0 0 0
          0 0 0 0 0 0
          0 0 0 0 0 0
          0 0 0 0 0 0
          0 0 -0 0 0 -0
          0 0 0 0 0 0
          0 0 0 0 0 0
          0 0 0 0 0 0
          0 0 0 0 0 0
          -0 0 0 0 0 0
          -0 0 0 0 0 0
          0 0 0 0 0 0
          0 0 0 0 0 0
          0 0 0 0 0 0
          0 -0 0 -0 0 0
          0 0 0 0 0 0
          0 0 0 0 0 0
          0 0 0 0 -0 0
          0 0 0 0 0 0
          0 0 0 0 0 0
          0 0 0 0 0 0
          -0 0 0 0 0 0
          0 0 0 0 0 0
          0 0 0 0 0 0
          0 0 0 0 0 0
          0 0 0 0 0 0
          0 0 0 -0 0 0
          0 0 0 0 0 0
          0 0 0 0 -0 0
          0 0 0 0 0 0
          0 0 0 0 0 0
          0 0 0 0 0 0
          0 0 0 0 0 0
          0 0 0 0 0 0
          0 0 0 0 0 0
          0 0 0 -0 0 0
          0 0 0 0 0 0
          0 0 0 0 0 0
          0 0 0 0 0 0
          0 0 0 0 0 0
          0 0 0 0 0 0
          -0 0 0 0 0 0
          -0 0 0 0 0 0
          0 0 0 0 0 0
          0 0 0 -0 0 0
          0 -0 0 -0 0 0
          0 0 0 0 -0 0
          0 0 0 0 0 0
          0 0 0 0 0 0
          0 0 0 0 0 0
          0 0 0 0 0 0
          0 0 0 0 0 0
          -0 0 0 0 0 0
          0 0 0 0 0 0
          0 0 0 0 0 0
          0 0 0 0 0 0
          0 0 0 0 0 0
          0 0 0 0 0 0
          -0 0 0 0 0 0
          0 0 0 0 0 -0
          -0 0 0 0 0 0
          0 0 0 0 0 0
          0 0 0 0 0 0
          0 0 0 0 0 0
          0 0 0 0 0 0
          0 0 0 0 0 0
          -0 0 0 0 0 0
          0 0 0 0 0 0
          0 0 0 0 0 0
          0 -0 0 0 0 0
          -0 0 0 0 -0 0
          0 0 0 0 -0 0
          0 0 0 0 0 0
          0 0 -0 0 0 0
          0 0 0 0 0 0
          0 0 0 0 0 0
          0 0 0 0 0 0
          0 0 0 0 0 0
          -0 0 0 0 0 0
          0 0 0 -0 0 0
          0 0 0 0 0 0
          0 0 0 0 0 0
          0 0 0 0 0 0
          0 0 0 0 0 0
          0 0 0 0 0 0
          0 0 0 0 0 0
          0 0 0 -0 0 0
          -0 0 0 0 0 0
          0 0 0 0 0 0
          0 0 0 -0 0 0
          0 0 0 0 0 0
          0 0 0 0 0 0
          0 0 0 0 0 0
          0 0 0 0 0 0
          0 0 0 0 0 0
          0 0 0 0 0 0
          0 -0 0 0 0 0
          0 0 0 0 0 0
          0 0 0 0 0 0
          0 0 0 0 0 0
          0 0 0 0 0 0
          0 0 0 0 0 0
          0 0 0 0 0 0
          0 0 0 0 0 0
          0 0 0 0 0 0
          0 0 0 0 0 0
          0 0 0 0 0 -0
          0 0 0 0 0 0
          0 0 0 0 0 0
          0 0 0 0 0 0
          0 0 0 -0 0 0
          0 0 0 0 0 -0
          0 0 0 0 0 0
          0 0 0 0 0 0
          0 0 0 0 0 0
          0 0 0 0 0 0
          0 0 0 0 0 0
          0 -0 0 0 0 0
          0 0 0 0 0 0
          0 0 0 0 0 0
          0 -0 0 0 0 0
          0 0 0 0 -0 0
          0 0 0 0 0 0
          0 0 0 0 0 0
          0 0 0 0 0 0
          0 0 0 0 0 0
          0 0 0 0 0 0
          0 0 0 0 0 0
          0 0 0 0 0 0
          0 0 0 0 0 0
          0 -0 0 0 0 0
          0 0 0 0 -0 0
          -0 0 0 0 -0 0
          0 0 0 0 0 0
          0 0 0 0 0 0
          0 0 0 -0 0 0
          -0 0 0 0 0 0
          0 0 0 0 0 0
          0 0 0 0 0 0
          0 0 0 0 -0 0
          0 0 0 0 0 0
          0 0 0 0 0 0
          0 0 0 0 0 0
          0 0 0 0 0 0
          0 0 0 0 0 0
          0 0 0 0 -0 0
          0 0 0 0 0 0
          0 0 0 0 0 0
          0 0 0 0 0 0
          0 0 0 0 0 -0
          0 0 0 0 0 0
          0 0 -0 0 0 0
          0 0 0 0 0 0
          0 0 0 0 0 0
          0 0 -0 0 0 0
          -0 0 0 0 0 0
          0 0 -0 0 0 0
          0 0 0 0 0 0
          0 0 0 0 0 0
          0 0 0 0 0 0
          0 0 0 0 0 0
          0 0 0 -0 0 0
          0 0 0 0 0 0
          0 0 0 0 0 0
          0 0 0 0 0 0
          0 0 0 0 0 0
          0 0 0 0 0 0
          0 0 0 0 0 0
          0 0 0 0 -0 0
          0 0 0 0 0 0
          0 0 0 0 0 0
          0 0 0 0 0 0
          0 0 0 0 -0 0
          0 0 0 0 0 0
          0 -0 0 0 0 0
          0 -0 0 0 0 0
          0 0 0 0 0 0
          0 0 0 0 -0 0
          0 0 0 0 0 0
          0 0 0 0 0 0
          0 0 0 0 0 0
          0 0 0 0 0 -0
          0 0 0 0 -0 0
          0 0 0 0 0 0
          0 0 0 0 0 0
          0 0 0 -0 0 0
          0 0 0 0 0 0
          0 0 0 0 0 0
          -0 0 0 0 0 0
          0 0 0 0 0 0
          0 0 0 0 0 0
          0 0 0 0 0 0
          0 0 0 0 0 0
          0 0 0 0 0 0
          0 0 0 0 0 0
          0 0 0 0 0 0
          0 0 0 0 0 0
          0 0 0 0 0 0
          0 0 -0 0 0 0
          0 0 0 0 0 0
          -0 0 0 0 0 0
          -0 0 0 0 0 0
          0 0 0 -0 0 0
          0 0 0 0 0 0
          0 0 0 0 0 0
          0 0 0 0 0 0
          0 0 0 0 0 0
          0 0 0 0 0 0
          0 0 0 0 0 0
          0 0 0 0 0 0
          0 0 -0 0 0 0
          -0 0 0 0 0 0
          0 0 0 0 0 0
          0 0 0 -0 0 0
          -0 0 0 0 0 0
          0 -0 0 0 0 0
          0 0 0 0 0 0
          0 0 0 0 0 0
          -0 0 0 0 0 0
          0 0 0 0 0 0
          0 0 0 0 0 0
          0 0 0 0 0 0
          0 0 0 0 0 0
          0 0 0 0 0 0
          0 0 0 0 0 0
          0 0 0 0 0 0
          0 0 0 0 0 0
          0 0 0 0 0 0
          0 0 0 0 0 0
          0 0 0 0 0 0
          0 0 0 0 0 0
          0 0 0 0 0 0
          0 0 0 0 0 0
          0 0 0 0 0 0
          0 0 0 0 0 0
          0 0 0 0 0 0
          0 0 0 0 0 0
          0 0 0 0 0 0
          0 0 0 0 0 0
          0 0 0 -0 0 0
          0 -0 0 0 0 0
          0 0 0 0 0 0
          0 -0 0 0 0 0
          0 0 0 0 0 0
          0 0 0 0 0 0
          0 0 0 0 0 0
          0 0 0 0 0 0
          0 0 0 0 0 0
          0 0 0 0 0 0
          0 0 0 0 0 0
          0 0 0 0 0 0
          0 0 0 0 0 0
          0 0 0 0 0 0
          0 0 0 0 0 0
          0 0 0 0 0 0
          0 0 0 0 0 0
          0 0 0 0 0 0
          0 0 0 -0 0 0
          0 0 0 0 0 0
          0 0 0 0 0 0
          0 0 0 0 0 0
          0 0 0 0 0 0
          0 0 0 0 0 0
          0 0 0 0 0 -0
          0 0 0 0 0 0
          0 0 0 0 -0 0
          0 -0 0 0 0 0
          0 0 0 0 0 0
          0 0 0 0 0 0
          0 0 0 0 0 0
          0 0 0 0 0 0
          0 0 0 0 0 0
          0 0 0 0 0 0
          0 0 0 -0 0 0
          0 0 0 0 0 0
          0 0 0 0 0 0
          0 0 0 0 0 0
          0 0 0 0 0 0
          0 0 0 0 0 0
          0 0 0 -0 0 0
          0 0 0 0 0 0
          0 0 0 0 0 0
          0 0 0 0 0 0
          0 0 0 0 0 0
          0 0 0 0 0 0
          0 0 0 0 0 0
          0 0 0 0 0 0
          0 0 0 0 0 0
          0 0 0 0 0 0
          0 0 0 0 0 -0
          0 0 0 0 0 0
          0 0 0 0 0 0
          0 0 0 0 0 -0
          0 0 0 -0 0 0
          0 0 0 0 0 0
          0 0 0 0 0 0
          0 0 0 0 -0 0
          0 0 0 0 0 0
          0 0 0 0 0 0
          0 0 0 0 0 0
          0 0 0 0 0 0
          0 0 0 0 -0 0
          0 0 0 0 0 0
          0 -0 0 0 0 0
          0 0 0 0 0 0
          0 0 0 0 0 0
          0 0 0 0 0 0
          0 0 0 0 0 0
          0 0 0 0 0 0
          0 0 0 0 0 0
          0 0 0 0 0 0
          0 0 0 0 0 0
          0 0 0 0 0 0
          0 0 0 0 0 0
          0 0 -0 0 0 0
          0 0 0 0 0 0
          0 0 0 0 0 0
          0 0 0 0 0 0
          0 0 0 0 0 0
          0 0 0 0 0 0
          0 0 0 0 0 0
          0 0 0 0 0 0
          0 0 0 0 0 -0
          0 0 0 -0 0 0
          0 0 0 0 0 0
          0 0 0 0 0 0
          0 0 0 0 0 0
          0 0 0 0 0 0
          0 0 0 0 0 0
          0 0 0 0 -0 0
          0 0 0 0 0 0
          0 0 0 0 0 0
          0 0 0 0 0 0
          0 0 0 0 0 0
          0 0 0 0 0 0
          0 0 0 0 0 0
          0 0 0 0 0 0
          0 0 0 0 0 0
          0 0 0 0 0 0
          0 0 0 0 0 0
          0 0 0 0 0 0
          0 0 0 0 0 0
          0 0 0 0 0 0
          0 0 0 0 -0 0
          0 0 0 0 0 0
          0 0 0 0 0 0
          0 0 0 0 0 -0
          0 0 0 0 0 0
          0 0 0 0 0 0
          0 0 0 0 0 0
          0 0 0 0 0 0
          0 0 0 0 0 0
          0 0 0 0 -0 0
          0 0 0 0 0 0
          0 0 0 0 0 0
          0 0 0 0 0 0
          0 0 0 0 0 0
          0 0 0 0 0 0
          0 0 0 0 0 0
          -0 0 0 0 0 0
          0 0 -0 0 0 0
          0 0 0 0 0 0
          0 0 0 0 0 0
          -0 0 0 -0 0 0
          0 0 0 0 0 0
          0 0 0 0 0 0
          0 0 0 0 0 0
          0 0 0 0 0 0
          -0 0 0 0 0 -0
          0 0 0 0 0 0
          0 0 0 0 0 0
          0 0 0 0 0 0
          0 0 0 0 0 0
          0 0 0 0 0 0
          0 0 0 0 0 0
          0 0 0 0 0 0
          0 0 0 0 0 0
          0 0 -0 0 0 0
          -0 0 0 0 0 0
          0 0 0 0 0 0
          0 0 0 0 0 0
          0 0 0 0 0 0
          0 0 0 0 0 0
          0 0 0 0 0 0
          0 0 0 0 0 0
          0 0 0 0 0 -0
          0 0 0 0 0 0
          0 0 0 0 0 0
          0 0 0 0 0 0
          0 0 0 0 0 0
          -0 0 0 0 -0 0
          0 0 0 0 0 0
          0 -0 0 0 0 0
          0 0 0 0 0 0
          -0 0 0 0 0 0
          0 0 0 0 0 0
          0 0 0 0 0 0
          0 0 0 0 0 0
          -0 0 0 0 0 -0
          0 0 0 0 0 -0
          0 0 0 0 0 0
          0 0 0 0 0 0
          0 0 0 0 0 0
          0 0 0 0 0 0
          0 0 0 0 0 0
          0 0 0 0 0 0
          0 0 0 0 -0 0
          0 0 0 0 -0 0
          0 0 0 0 0 0
          0 0 0 0 0 -0
          0 0 0 0 0 0
          0 0 0 0 0 0
          0 0 0 0 0 -0
          0 0 0 0 0 0
          0 0 0 0 0 0
          0 0 0 0 0 0
          0 0 0 0 0 0
          0 0 0 0 0 0
          0 0 0 0 0 0
          0 0 0 0 0 0
          0 0 0 0 0 0
          0 0 0 0 0 0
          0 0 0 -0 0 0
          0 0 0 0 0 0
          0 0 0 0 0 0
          0 0 0 0 0 0
          0 0 0 0 0 0
          0 0 0 0 0 0
          0 0 0 0 0 0
          0 0 0 0 0 0
          0 0 0 0 0 0
          0 0 0 0 0 0
          0 0 0 0 0 0
          0 0 0 0 0 0
          0 0 0 0 0 0
          0 0 0 0 0 0
          0 0 0 0 0 0
          0 0 0 -0 0 0
          -0 0 0 0 0 0
          -0 0 0 0 0 0
          0 0 0 0 0 0
          0 0 0 0 0 0
          0 0 0 0 0 0
          0 0 0 0 0 0
          0 0 0 0 0 0
          0 0 0 0 0 0
          0 0 0 0 0 0
          0 0 0 0 0 0
          0 0 0 0 0 0
          0 0 0 0 0 0
          0 0 0 0 0 0
          0 0 0 -0 0 0
          0 0 0 0 0 0
          0 0 0 0 0 0
          0 0 0 0 0 0
          0 0 0 0 0 0
          0 0 0 0 0 0
          0 0 0 0 0 0
          0 0 0 0 0 0
          0 0 0 0 0 0
          0 0 0 0 0 0
          0 0 0 -0 0 0
          0 0 0 0 0 0
          0 0 0 0 0 0
          0 0 0 0 0 0
          0 0 0 0 0 0
          0 0 0 0 0 0
          0 -0 -0 0 0 0
          0 0 0 0 0 0
          -0 0 0 0 0 0
          0 0 0 0 0 0
          0 0 0 0 0 0
          0 0 0 0 0 0
          0 0 0 0 0 0
          0 0 0 0 0 -0
          0 0 0 0 0 0
          -0 0 0 0 0 0
          0 0 0 0 0 0
          0 0 0 -0 0 0
          0 0 0 0 0 0
          0 0 0 0 0 0
          0 0 0 0 0 0
          0 0 0 0 0 0
          0 0 0 0 0 0
          0 0 0 0 0 0
          0 0 0 -0 0 0
          0 0 0 0 0 0
          0 0 0 0 0 -0
          0 0 0 -0 0 0
          0 0 0 0 0 0
          0 0 0 0 0 0
          0 0 0 0 0 0
          0 0 0 0 0 0
          0 0 0 0 -0 0
          0 -0 0 0 0 0
          -0 0 0 0 0 0
          0 0 0 0 0 0
          0 0 0 0 0 0
          0 0 0 0 0 0
          0 0 0 0 0 -0
          0 0 0 0 0 0
          0 0 0 0 0 0
          0 -0 0 0 0 0
          0 0 0 0 0 0
          0 0 0 0 0 0
          0 -0 0 0 0 0
          0 0 0 0 0 0
          0 0 0 0 0 0
          0 0 0 0 0 0
          0 0 0 0 0 0
          0 0 0 0 0 0
          0 0 0 0 -0 0
          0 0 0 0 0 0
          0 0 0 0 0 0
          0 0 0 0 0 0
          0 0 0 0 0 0
          0 0 0 0 0 0
          0 0 0 0 0 0
          0 0 0 0 0 0
          0 0 0 0 0 0
          0 -0 0 0 0 0
          0 0 0 0 0 0
          0 0 0 0 0 0
          0 0 0 0 0 0
          0 0 0 0 0 0
          0 0 0 0 0 0
          -0 0 0 0 0 0
          0 0 0 0 0 0
          0 0 -0 0 0 0
          -0 0 0 0 -0 0
          0 0 0 0 0 0
          0 0 0 0 0 0
          0 0 0 -0 0 0
          0 0 0 0 0 0
          0 0 0 0 0 0
          0 0 0 0 0 0
          0 0 0 0 0 0
          0 0 0 0 0 0
          0 0 0 0 0 0
          0 0 0 0 0 0
          0 0 0 0 0 0
          0 0 0 0 0 0
          0 0 0 0 0 0
          0 -0 0 0 0 0
          -0 0 0 0 0 0
          0 0 0 0 -0 0
          0 0 0 0 0 0
          0 -0 0 0 0 0
          0 0 0 0 -0 0
          0 0 0 0 0 0
          0 0 0 0 0 0
          0 0 0 -0 0 0
          0 0 0 0 0 0
          -0 0 0 0 0 0
          0 0 0 0 0 0
          0 0 0 -0 0 0
          0 0 0 0 0 0
          0 0 0 0 0 0
          0 0 0 0 0 0
          0 0 0 0 0 0
          0 0 -0 0 0 0
          0 0 0 0 0 0
          0 0 0 0 0 0
          0 0 0 0 0 0
          0 0 0 0 0 0
          0 0 0 0 0 0
          0 0 0 0 0 0
          0 0 0 0 0 0
          0 0 0 0 0 0
          0 0 0 0 0 0
          0 0 0 0 0 0
          0 0 0 0 0 0
          0 0 0 0 0 0
          0 0 0 0 0 0
          0 0 0 0 0 0
          0 0 0 0 -0 0
          0 0 0 0 0 0
          0 -0 0 0 0 0
          0 0 0 0 0 0
          0 0 0 0 0 0
          0 0 -0 -0 0 0
          0 0 0 0 0 0
          0 0 0 0 0 0
          0 0 0 -0 0 0
          0 0 0 0 0 0
          0 0 0 0 0 0
          0 -0 0 0 0 0
          0 0 0 0 0 0
          0 0 0 -0 0 0
          0 0 0 0 0 0
          0 0 -0 0 0 0
          0 0 0 0 0 0
          0 0 0 0 0 0
          0 0 0 0 0 0
          0 0 0 0 0 0
          0 0 0 0 0 0
          0 -0 0 0 0 0
          0 0 0 0 0 0
          0 0 0 0 0 0
          0 0 0 0 0 0
          0 0 0 0 0 0
          0 0 -0 0 0 0
          0 0 0 0 0 0
          0 0 0 0 0 0
          0 0 0 0 0 -0
          0 0 0 0 0 0
          0 0 0 0 0 0
          0 0 0 -0 0 0
          0 0 -0 0 0 0
          -0 0 0 0 0 0
          0 0 0 0 0 0
          0 0 0 0 0 0
          0 0 0 0 0 0
          0 0 0 0 0 0
          0 0 0 0 0 0
          0 0 0 0 0 0
          0 0 0 0 0 0
          0 0 0 0 0 0
          0 0 0 0 -0 0
          0 0 0 0 0 -0
          0 0 0 0 0 0
          0 0 0 0 0 0
          -0 0 0 0 -0 0
          0 0 -0 0 0 0
          0 0 0 0 0 0
          0 0 0 0 0 0
          0 0 0 0 0 -0
          0 0 0 0 0 0
          0 0 0 -0 0 0
          0 0 0 0 0 0
          0 -0 0 0 0 0
          0 0 0 0 0 -0
          0 0 0 0 0 0
          0 0 0 0 0 0
          0 0 0 0 0 0
          0 0 0 0 0 0
          0 -0 0 0 0 0
          0 0 0 0 0 0
          0 0 0 0 0 0
          0 0 0 0 0 0
          0 0 0 0 0 0
          0 0 0 0 0 0
          0 0 0 0 0 0
          0 0 0 0 0 0
          0 0 0 0 0 0
          0 0 0 0 0 0
          0 0 0 0 0 0
          0 0 0 0 0 0
          0 0 0 0 0 0
          0 0 0 0 0 0
          0 0 0 0 0 0
          0 0 0 0 0 0
          0 0 0 0 0 -0
          0 0 0 0 0 0
          -0 0 0 0 0 0
          0 0 0 0 0 -0
          0 0 0 0 0 0
          0 0 0 0 0 0
          0 0 0 0 0 0
          0 0 0 0 0 0
          0 0 0 0 0 0
          0 0 0 0 0 0
          0 0 0 0 -0 0
          0 0 0 0 0 0
          0 0 0 0 0 0
          0 0 0 0 0 0
          0 0 0 0 -0 0
          0 0 0 0 0 0
          0 0 0 0 0 0
          0 0 0 0 0 0
          0 0 0 0 -0 0
          0 0 0 0 0 0
          0 -0 0 0 0 0
          0 0 0 0 0 0
          0 0 0 0 0 0
          0 0 0 0 0 0
          0 -0 0 0 0 0
          0 0 0 0 0 0
          0 0 0 0 0 0
          0 0 0 0 0 0
          0 0 0 0 0 0
          0 0 0 0 0 0
          0 0 0 0 0 0
          0 0 -0 0 0 0
          0 0 0 0 0 0
          0 0 0 0 0 0
          0 0 0 0 0 0
          0 0 0 0 0 0
          -0 0 0 -0 0 0
          0 0 0 0 0 0
          0 0 0 0 0 0
          0 0 0 0 0 0
          0 0 0 0 0 0
          0 0 0 0 0 0
          0 0 0 0 0 0
          0 0 0 0 0 0
          0 0 0 0 0 0
          0 0 0 0 0 0
          0 0 -0 -0 0 0
          0 0 0 0 0 0
          0 0 0 0 0 0
          0 0 0 0 0 -0
          0 0 0 -0 0 0
          0 0 0 0 0 0
          0 0 0 0 0 0
          0 -0 0 0 0 0
          0 0 0 0 0 0
          0 0 0 0 0 0
          0 0 0 0 0 0
          0 0 0 0 0 0
          0 0 0 0 0 0
          0 0 0 0 0 0
          0 0 0 0 0 0
          0 0 0 0 0 0
          -0 0 0 0 0 0
          0 0 0 0 0 0
          0 0 0 0 0 0
          0 0 0 0 0 0
          0 0 0 0 0 0
          0 0 0 0 0 0
          -0 0 0 0 0 0
          0 0 0 -0 0 0
          0 0 0 0 0 0
          0 0 0 0 0 0
          0 0 0 0 0 0
          0 0 0 -0 0 0
          0 0 0 0 0 0
          0 0 0 0 0 0
          0 0 0 0 0 0
          0 0 0 0 0 0
          0 0 0 0 0 -0
          0 0 0 0 0 0
          0 0 0 0 0 0
          0 0 0 0 0 0
          0 0 0 0 0 0
          0 0 0 0 0 0
          0 0 0 0 0 0
          0 0 0 0 0 0
          0 0 0 0 0 0
          0 0 0 0 0 0
          0 0 0 0 0 0
          0 0 0 0 0 0
          0 0 0 0 0 0
          0 0 -0 0 0 0
          0 0 0 0 0 0
          0 0 0 0 0 0
          0 0 0 0 0 0
          0 0 0 0 0 0
          0 0 0 0 0 -0
          0 0 0 0 0 0
          0 0 0 0 0 0
          0 0 0 0 0 0
          0 0 0 0 0 0
          0 0 0 0 0 0
          0 0 0 0 0 0
          -0 0 0 0 0 0
          0 0 0 0 0 0
          0 0 0 0 0 0
          0 0 0 0 0 0
          0 -0 0 0 0 0
          0 0 0 -0 0 0
          0 0 0 0 0 0
          0 0 0 0 0 0
          0 0 0 0 -0 0
          0 0 0 0 0 0
          0 0 0 0 0 0
          0 0 0 0 0 0
          0 0 0 0 0 0
          -0 0 0 0 0 0
          0 0 0 0 0 0
          0 0 0 0 0 0
          0 0 0 0 0 0
          0 0 0 0 0 0
          0 0 0 0 0 0
          0 0 0 0 0 0
          0 0 0 0 0 0
          0 0 0 0 0 0
          0 0 0 0 0 0
          0 0 0 0 0 0
          0 0 0 -0 0 0
          0 0 0 0 0 0
          0 0 0 0 0 0
          0 0 0 0 0 0
          0 0 -0 0 0 0
          0 0 0 0 0 0
          0 0 0 0 0 0
          0 0 0 0 0 0
          -0 0 0 0 0 0
          0 0 0 0 0 0
          0 0 0 0 0 0
          0 0 0 0 0 0
          0 0 0 0 0 0
          0 0 -0 0 0 0
          0 0 0 0 0 0
          0 0 0 0 0 0
          0 0 0 -0 0 0
          0 0 0 0 0 0
          0 0 0 0 -0 0
          0 0 0 0 0 0
          0 0 0 0 0 0
          0 0 0 0 0 0
          0 0 0 0 0 0
          0 0 0 0 0 0
          0 0 0 -0 0 0
          -0 0 0 -0 0 0
          0 0 0 0 0 0
          0 0 0 0 0 0
          0 0 0 0 0 0
          0 0 0 0 0 0
          0 0 0 0 0 0
          0 0 0 0 0 0
          0 0 0 0 0 0
          0 0 0 0 0 0
          -0 0 0 0 0 0
          0 0 0 0 0 0
          0 0 0 0 0 0
          0 0 0 0 0 0
          0 0 0 0 0 0
          0 0 0 0 0 0
          -0 0 0 0 0 0
          0 0 0 0 0 0
          0 0 0 0 0 0
          0 0 -0 0 0 0
          0 -0 0 0 0 0
          0 0 0 0 0 0
          0 -0 0 0 0 0
          0 0 0 -0 0 0
          0 0 0 0 0 -0
          0 0 0 0 0 0
          0 0 0 0 0 0
          0 0 0 0 0 0
          0 0 0 0 -0 0
          0 0 0 0 0 0
          0 0 0 0 0 0
          0 0 0 0 0 0
          -0 0 0 0 0 0
          0 0 0 0 0 0
          0 -0 0 0 -0 0
          0 0 0 0 0 -0
          0 0 0 0 0 0
          0 0 0 0 0 0
          0 0 0 0 0 -0
          0 0 0 0 0 0
          0 0 0 0 0 0
          0 0 0 0 0 0
          0 0 0 0 0 0
          0 0 0 0 0 0
          -0 0 0 0 0 0
          0 0 0 0 0 0
          0 0 0 0 0 0
          0 0 0 0 -0 0
          0 0 0 0 0 0
          0 0 0 0 0 0
          0 0 0 0 0 0
          0 0 0 0 0 0
          0 0 0 0 0 0
          0 -0 0 0 0 0
          0 0 0 0 0 0
          0 0 0 0 0 0
          0 0 0 0 0 0
          0 0 0 0 0 0
          0 0 0 0 0 0
          0 0 0 -0 0 0
          0 0 0 0 0 -0
          0 0 0 0 0 0
          0 -0 0 0 0 0
          0 0 0 -0 0 0
          0 0 0 0 0 0
          0 0 0 -0 0 0
          0 0 0 0 0 0
          0 0 -0 0 0 0
          0 0 0 0 0 0
          0 0 -0 0 0 0
          0 -0 0 0 0 0
          0 0 0 0 0 0
          -0 0 0 0 0 0
          0 0 0 0 0 -0
          0 0 0 0 0 0
          0 0 0 0 -0 0
          0 0 0 0 0 0
          0 0 0 0 0 0
          0 0 0 0 0 0
          0 0 0 0 0 0
          0 0 0 0 0 0
          0 0 0 0 0 0
          0 0 0 0 0 0
          0 -0 0 -0 0 0
          0 0 0 0 0 0
          0 0 0 0 0 0
          -0 0 0 0 -0 0
          0 0 0 0 0 0
          0 0 0 0 0 0
          0 0 0 0 0 0
          0 0 0 0 0 0
          0 0 0 0 0 0
          0 0 0 0 0 0
          0 0 0 0 0 0
          0 0 0 0 0 -0
          0 0 0 0 0 -0
          0 0 0 0 0 0
          0 0 0 0 0 0
          0 0 0 0 0 0
          -0 0 0 0 0 0
          0 0 0 0 0 -0
          0 0 0 0 -0 0
          0 0 0 0 0 0
          0 0 0 0 0 0
          0 0 0 0 -0 0
          0 0 0 0 0 0
          0 0 0 0 0 0
          0 0 0 0 0 0
          -0 0 0 0 0 0
          0 0 0 -0 0 0
          0 0 0 0 0 0
          0 0 0 0 0 0
          0 0 0 0 0 0
          0 0 0 0 0 0
          0 0 0 0 0 -0
          0 0 0 0 0 0
          0 0 0 0 0 0
          0 0 0 0 0 0
          0 0 0 0 0 0
          0 0 -0 0 0 0
          0 0 0 0 0 0
          0 0 0 0 0 0
          0 0 -0 0 -0 0
          0 0 0 0 0 0
          0 0 0 0 0 0
          0 0 0 0 0 0
          0 0 0 0 0 0
          0 0 0 0 0 0
          0 0 0 0 0 0
          0 0 0 0 0 0
          0 0 0 0 0 0
          0 0 0 0 -0 0
          0 0 0 0 0 0
          0 0 0 0 0 0
          0 0 0 0 0 0
          -0 0 0 0 0 0
          0 0 0 0 0 0
          0 0 0 0 0 0
          0 0 0 0 0 0
          0 0 0 0 0 0
          0 0 0 0 0 0
          0 0 -0 0 0 0
          0 -0 0 0 0 0
          0 0 0 0 0 0
          0 0 0 0 0 0
          -0 0 0 0 0 0
          0 0 0 0 0 0
          0 0 0 0 0 0
          0 0 0 0 0 0
          0 0 0 0 0 0
          0 0 0 0 0 0
          0 0 0 0 0 0
          0 0 0 0 0 0
          0 0 0 0 0 0
          0 0 0 0 0 0
          0 0 0 0 0 0
          0 0 0 0 0 0
          0 0 0 0 0 0
          0 0 0 0 0 0
          0 0 0 0 0 0
          0 0 0 0 0 0
          -0 0 0 0 0 0
          0 0 0 0 0 0
          0 0 0 0 0 0
          0 0 0 0 0 0
          0 0 0 0 -0 0
          0 0 0 0 0 0
          0 0 0 0 0 0
          0 0 0 0 0 0
          -0 0 0 0 0 0
          0 0 0 0 0 0
          0 0 0 0 0 0
          0 0 0 0 0 0
          0 0 0 -0 0 0
          0 0 0 0 0 0
          0 0 0 0 -0 0
          0 0 0 0 0 0
          0 0 0 0 0 0
          0 0 0 0 0 0
          0 0 0 0 0 0
          0 0 0 0 -0 0
          0 0 0 0 0 0
          0 0 0 0 0 0
          -0 0 0 0 0 -0
          0 0 0 0 0 0
          -0 0 0 0 0 0
          0 0 0 0 0 0
          0 0 0 0 0 0
          0 0 0 0 0 0
          0 0 0 0 0 0
          0 0 0 0 0 0
          0 0 0 0 0 0
          0 0 0 0 0 0
          0 0 0 0 0 0
          0 0 0 0 0 0
          -0 0 0 0 0 0
          0 0 0 0 0 0
          0 0 0 0 0 0
          0 0 0 0 0 0
          0 0 0 0 0 0
          0 0 0 0 0 0
          0 0 0 0 0 0
          0 0 0 0 0 0
          0 0 -0 0 0 0
          0 0 0 0 0 -0
          0 0 0 0 0 0
          0 0 0 0 0 0
          0 0 0 0 0 0
          0 0 -0 0 0 0
          0 -0 0 0 0 0
          0 0 0 0 0 0
          0 0 0 0 0 0
          0 0 0 0 -0 0
          0 0 0 0 0 0
          0 0 0 0 0 0
          -0 0 0 0 0 0
          0 -0 0 0 0 0
          0 0 0 0 0 0
          0 0 0 0 0 0
          0 0 0 0 0 0
          0 0 0 -0 0 0
          0 0 0 -0 0 0
          0 0 -0 0 -0 0
          -0 0 0 0 -0 0
          0 0 0 0 0 0
          0 0 0 0 0 0
          0 0 0 0 0 -0
          0 0 0 0 0 0
          0 0 0 0 0 0
          -0 0 0 0 0 0
          0 0 0 0 0 0
          0 0 0 0 -0 0
          0 0 0 0 0 0
          0 0 0 0 0 0
          0 0 0 0 -0 0
          0 0 0 -0 0 0
          0 0 -0 0 0 0
          0 0 0 0 0 0
          0 -0 0 0 0 0
          0 0 0 0 -0 0
          0 0 0 0 -0 0
          0 0 0 0 0 0
          0 0 -0 0 0 0
          0 0 0 0 0 0
          0 0 0 0 0 0
          0 0 0 0 0 0
          0 0 0 0 0 0
          0 0 0 0 0 -0
          0 0 0 0 0 -0
          0 0 0 0 0 0
          0 0 0 0 0 0
          0 0 0 0 0 0
          0 0 0 0 0 0
          0 0 0 0 0 0
          0 0 0 0 0 0
          0 0 0 0 0 0
          0 0 0 0 0 0
          0 0 0 0 -0 0
          0 0 0 0 0 0
          0 0 -0 0 0 0
          0 0 0 0 0 0
          0 -0 0 0 0 0
          0 0 0 0 0 0
          0 0 0 0 0 0
          0 -0 0 0 0 0
          0 0 0 0 0 0
          0 -0 0 0 0 0
          0 0 0 0 0 0
          0 -0 0 0 0 0
          -0 0 0 0 0 0
          0 0 0 0 -0 0
          0 0 0 0 0 0
          0 0 0 0 0 0
          0 0 0 -0 0 0
          0 0 0 -0 0 0
          0 0 0 0 0 0
          0 0 0 -0 0 0
          0 0 0 0 -0 0
          -0 0 0 0 0 0
          0 0 0 0 0 0
          0 0 0 0 -0 0
          0 0 0 0 0 0
          -0 0 0 0 0 0
          0 0 0 0 0 0
          0 0 -0 0 0 0
          0 0 0 0 0 0
          0 0 0 -0 0 0
          0 0 0 0 0 0
          0 0 0 0 -0 0
          0 0 0 0 0 0
          0 -0 0 0 0 0
          0 0 0 0 0 0
          0 0 0 0 0 0
          0 0 0 0 0 0
          0 0 0 0 0 0
          0 0 0 -0 0 0
          0 0 0 0 0 0
          0 0 0 0 0 0
          0 0 0 0 0 0
          0 0 0 0 0 0
          0 0 0 0 0 0
          0 0 0 0 0 0
          0 0 -0 0 0 0
          0 0 0 0 0 0
          -0 0 0 0 0 0
          0 0 -0 0 0 0
          0 0 0 0 0 0
          0 0 0 0 0 0
          -0 0 0 0 0 0
          0 0 0 0 0 0
          0 0 0 0 0 0
          0 0 0 0 0 0
          0 0 0 0 0 -0
          0 0 0 0 0 0
          0 0 0 0 0 0
          0 0 0 0 0 0
          0 0 0 0 0 0
          -0 0 0 0 0 0
          0 0 0 0 0 0
          0 0 0 0 0 0
          0 0 0 0 0 0
          0 0 0 0 0 0
          0 0 0 0 0 0
          0 0 0 0 0 0
          0 0 0 0 0 0
          0 0 0 0 0 0
          0 0 0 0 0 0
          0 0 0 0 0 0
          0 0 0 0 0 0
          0 0 0 0 0 0
          0 0 0 0 0 0
          0 0 0 0 0 0
          0 0 0 0 0 0
          0 0 0 0 0 0
          0 0 0 0 0 0
          0 0 0 0 0 0
          0 0 0 0 0 0
          0 0 0 0 0 0
          0 0 0 0 0 0
          0 0 0 0 0 0
          0 0 0 0 0 0
          0 0 0 0 0 0
          0 0 0 0 0 0
          0 0 0 0 0 0
          0 0 0 0 -0 0
          0 0 0 0 0 0
          0 0 0 0 -0 0
          -0 0 0 0 0 0
          0 0 0 0 0 0
          0 0 0 0 0 0
          0 0 0 -0 0 0
          0 -0 0 0 0 0
          0 0 0 0 -0 0
          0 0 0 0 0 -0
          -0 0 0 0 0 0
          0 0 0 0 0 0
          -0 0 0 0 0 0
          0 0 0 0 0 0
          0 -0 0 0 0 0
          0 0 0 0 0 -0
          0 0 0 0 0 0
          0 0 -0 -0 -0 0
          0 0 0 0 0 0
          0 0 0 0 0 0
          0 0 0 0 -0 0
          0 0 0 0 0 0
          0 0 0 -0 0 0
          0 0 0 0 0 0
          0 0 0 0 0 0
          0 0 0 0 0 -0
          0 0 0 0 0 0
          0 -0 0 0 0 0
          0 0 0 0 0 0
          0 0 0 0 0 0
          0 0 0 0 0 0
          0 0 0 0 0 0
          0 0 0 0 0 0
          0 0 0 0 -0 0
          0 0 0 0 -0 0
          0 0 0 0 0 0
          0 0 -0 0 0 0
          0 0 0 0 0 0
          0 0 0 0 0 0
          0 0 0 0 0 0
          -0 0 0 0 0 0
          0 0 0 0 0 0
          0 0 0 0 0 0
          -0 0 0 0 0 0
          0 0 0 0 0 0
          0 0 0 0 0 0
          0 0 0 0 0 0
          0 0 0 0 0 0
          0 0 0 0 -0 0
          0 0 -0 0 0 0
          0 0 0 0 0 0
          0 0 0 -0 0 0
          0 -0 0 0 0 -0
          -0 0 0 0 0 0
          0 0 0 0 0 0
          0 0 0 0 0 0
          0 0 0 0 0 0
          0 0 0 -0 0 0
          0 0 0 0 0 -0
          0 0 0 -0 0 0
          0 0 0 0 -0 0
          0 0 0 0 0 0
          0 0 0 0 0 0
          0 0 0 0 0 0
          0 0 0 0 0 0
          0 0 0 0 0 0
          0 0 0 0 0 0
          0 0 0 0 0 0
          0 0 0 0 0 0
          0 0 0 0 0 -0
          0 0 0 0 0 0
          0 0 0 0 0 0
          0 0 0 0 0 0
          0 0 0 0 0 0
          0 0 0 0 0 0
          0 0 0 0 0 0
          0 0 0 0 0 0
          0 -0 0 0 0 0
          0 0 0 0 0 0
          0 0 0 0 0 0
          0 0 0 0 0 0
          0 0 0 0 0 0
          0 0 0 0 0 0
          0 0 0 0 -0 0
          0 0 0 0 0 0
          0 0 0 0 0 0
          0 0 0 0 0 0
          0 0 0 0 -0 0
          0 0 0 0 0 0
          0 0 0 0 0 0
          0 0 0 -0 0 0
          -0 0 0 0 0 0
          0 0 0 -0 0 0
          0 0 0 0 0 0
          0 0 0 0 0 0
          0 0 0 0 0 0
          0 0 0 0 0 0
          0 0 0 0 0 0
          0 0 0 0 0 0
          -0 0 0 0 0 0
          0 0 0 0 0 0
          0 0 0 0 0 0
          0 0 0 0 0 0
          -0 0 0 0 0 0
          0 0 0 0 0 0
          0 0 0 0 0 0
          0 0 0 0 0 0
          0 0 0 0 0 0
          0 0 0 0 0 0
          0 0 0 0 0 0
          0 0 0 0 0 0
          0 0 0 0 0 0
          0 0 0 0 0 0
          0 0 0 0 0 0
          0 0 0 0 0 0
          0 0 0 0 0 0
          0 0 0 0 0 0
          0 0 0 0 0 0
          0 0 0 0 0 0
          0 0 0 0 0 0
          -0 0 0 0 0 0
          0 0 0 0 0 0
          0 0 0 0 -0 0
          0 0 0 0 0 0
          0 0 0 0 0 0
          -0 0 0 0 0 0
          0 0 0 0 0 0
          0 0 0 0 0 0
          0 0 0 -0 0 0
          0 0 0 0 0 0
          0 0 0 0 0 0
          0 0 0 0 -0 0
          0 0 0 0 0 0
          0 0 0 0 0 0
          0 0 0 0 0 0
          0 0 0 -0 0 0
          0 0 0 0 0 -0
          0 0 0 0 0 0
          0 0 0 0 0 0
          0 0 0 0 0 0
          0 0 0 -0 0 0
          0 0 0 0 0 0
          0 0 0 0 0 0
          -0 0 0 0 0 0
          0 0 0 0 0 0
          0 0 0 0 0 0
          -0 0 0 0 -0 0
          0 0 0 0 0 0
          0 -0 0 0 0 0
          0 0 0 0 0 0
          0 0 0 0 0 0
          0 0 0 0 0 0
          -0 0 0 0 0 0
          0 0 0 0 0 0
          0 0 0 0 0 0
          0 0 0 -0 0 0
          0 0 0 0 0 0
          0 0 0 0 0 0
          0 0 0 0 0 0
          0 0 0 0 0 0
          0 0 0 0 0 0
          0 0 0 0 0 0
          0 0 0 0 0 0
          0 0 0 0 0 0
          0 0 0 0 -0 0
          0 0 0 0 0 0
          0 0 0 0 0 0
          0 0 0 0 0 0
          0 0 0 0 0 -0
          0 0 0 0 0 0
          0 0 0 0 0 0
          0 0 0 0 0 0
          0 0 0 0 0 0
          0 0 0 0 0 0
          0 0 0 0 -0 0
          0 0 0 0 0 0
          0 0 0 0 -0 0
          0 0 0 0 0 0
          0 0 0 0 0 0
          0 0 0 0 0 0
          0 0 0 0 0 0
          0 0 0 0 0 0
          0 0 0 0 0 0
          0 0 0 0 0 0
          0 0 0 0 0 0
          0 0 0 0 0 -0
          0 0 0 0 0 0
          0 0 0 0 0 0
          0 0 0 0 0 0
          0 0 0 0 0 0
          0 0 0 0 0 0
          0 0 0 0 0 0
          0 0 0 0 0 0
          0 0 0 0 0 0
          0 0 -0 -0 0 0
          0 0 0 0 0 0
          0 0 0 0 0 0
          0 0 0 0 0 0
          0 0 0 0 0 0
          0 0 0 0 -0 0
          0 0 0 0 0 0
          0 0 0 0 0 0
          0 0 0 0 0 0
          0 -0 0 0 0 0
          0 0 0 0 0 0
          0 0 0 0 0 0
          0 0 0 0 0 0
          0 0 0 0 0 0
          0 0 0 0 -0 0
          0 0 0 0 0 0
          0 0 0 0 0 0
          0 0 0 0 0 0
          0 0 0 0 0 0
          0 0 0 0 0 0
          0 0 0 0 0 0
          0 0 0 0 0 0
          0 0 -0 0 0 0
          0 0 -0 0 0 0
          -0 0 0 0 0 0
          0 0 0 0 0 -0
          0 0 0 0 -0 0
          -0 0 0 0 0 0
          0 0 0 0 0 0
          0 0 0 0 0 0
          0 0 0 0 0 0
          0 0 0 0 0 0
          0 -0 0 0 0 0
          0 0 0 0 0 0
          0 0 0 0 0 0
          0 0 0 0 0 0
          0 0 0 0 0 0
          0 0 0 0 0 0
          0 0 0 0 0 0
          0 -0 0 -0 0 0
          0 0 0 0 0 0
          0 0 0 0 0 0
          0 0 0 -0 0 0
          0 0 0 0 0 0
          0 0 0 0 0 0
          0 0 0 0 0 0
          -0 0 0 0 0 0
          0 0 0 0 0 0
          0 0 0 0 0 0
          0 0 0 0 0 0
          -0 0 0 0 0 -0
          0 0 0 0 0 0
          0 0 0 0 0 0
          0 0 0 0 0 0
          0 0 0 0 0 0
          0 0 0 0 0 0
          0 0 0 0 0 0
          0 0 0 0 0 0
          0 0 0 0 0 0
          0 0 0 0 0 0
          0 0 0 0 0 0
          -0 0 0 0 0 0
          0 0 0 -0 0 0
          0 0 0 0 0 0
          0 -0 0 0 0 0
          0 0 0 0 0 0
          0 0 0 0 0 0
          0 0 0 0 0 0
          0 0 0 0 0 0
          0 0 -0 0 0 0
          0 0 0 0 0 -0
          0 -0 0 0 0 0
          0 0 0 0 0 0
          -0 0 0 0 0 0
          0 0 0 0 0 0
          0 0 0 0 0 0
          0 0 0 0 0 0
          0 0 0 0 0 0
          0 0 -0 -0 0 0
          0 0 0 0 0 0
          0 0 0 0 0 0
          0 0 0 0 0 0
          0 0 -0 0 0 0
          0 0 0 0 0 0
          0 0 0 0 0 0
          0 0 0 0 0 0
          0 0 0 0 0 0
          0 0 0 0 0 0
          0 0 0 0 0 0
          0 0 0 0 0 0
          0 0 0 -0 0 0
          -0 0 0 0 0 0
          0 0 -0 0 0 0
          0 0 0 0 0 0
          0 0 0 0 0 0
          -0 0 0 0 0 0
          0 0 0 0 0 0
          0 0 0 0 -0 0
          0 -0 0 -0 0 0
          0 0 0 0 0 0
          0 0 0 0 0 0
          0 0 0 0 0 0
          0 0 0 0 0 0
          0 0 0 0 0 0
          0 0 0 0 0 0
          -0 0 0 0 0 0
          0 0 0 0 0 0
          0 0 0 0 0 0
          0 0 0 0 0 0
          0 0 0 0 0 0
          0 0 0 0 0 0
          0 0 0 0 0 0
          0 -0 0 0 0 0
          0 0 0 0 0 0
          0 0 0 0 0 0
          0 0 0 0 0 0
          0 0 0 -0 0 0
          0 0 0 0 0 0
          0 0 0 0 0 0
          -0 0 0 0 0 0
          0 0 0 0 0 0
          0 0 0 0 0 0
          0 0 0 0 -0 0
          0 0 0 -0 0 0
          0 0 0 0 0 0
          0 0 0 0 0 0
          0 0 0 0 0 0
          0 -0 0 0 0 0
          0 0 0 0 0 0
          0 0 0 0 0 0
          0 0 0 0 0 0
          0 0 0 0 0 0
          0 0 0 -0 0 0
          0 0 0 0 0 -0
          0 0 0 0 0 0
          0 0 0 0 0 0
          -0 0 0 0 0 0
          0 0 0 0 -0 0
          0 0 0 0 0 0
          0 0 0 0 0 0
          0 0 0 0 0 0
          0 0 0 0 0 0
          0 0 -0 0 0 0
          0 0 0 0 -0 0
          0 0 0 0 0 0
          0 0 0 0 0 0
          0 0 0 0 0 0
          0 0 0 0 0 0
          0 -0 0 0 0 0
          0 0 0 0 0 0
          -0 0 0 0 0 0
          0 0 0 0 0 0
          0 0 0 0 0 0
          -0 0 0 0 0 0
          0 0 0 0 0 0
          0 -0 0 0 0 -0
          0 0 0 0 0 0
          0 -0 0 0 0 0
          0 0 0 0 0 0
          0 0 0 0 0 0
          0 0 0 0 0 0
          0 0 0 0 0 0
          0 0 0 0 0 0
          0 0 0 0 0 0
          0 0 0 0 0 0
          0 0 0 0 0 0
          0 0 0 -0 0 0
          0 0 0 0 0 0
          0 0 0 0 0 0
          0 0 0 0 0 0
          0 0 0 0 0 0
          0 0 0 0 0 0
          0 0 0 0 0 0
          -0 0 0 0 0 0
          0 0 0 0 0 0
          -0 0 0 0 0 0
          0 0 0 0 0 0
          -0 0 0 0 0 0
          0 0 0 0 0 0
          0 0 0 0 0 0
          0 0 0 0 0 0
          0 0 0 -0 0 0
          0 0 0 0 0 0
          -0 0 0 0 0 0
          0 0 0 0 0 0
          0 0 0 0 0 0
          0 -0 0 -0 0 0
          0 0 0 0 0 0
          0 0 0 -0 0 0
          0 0 0 0 0 0
          0 -0 0 0 0 0
          0 0 0 0 0 0
          0 0 0 0 0 0
          0 0 0 0 0 0
          0 0 0 0 0 0
          0 0 0 0 0 0
          0 0 0 0 -0 0
          0 0 0 0 0 0
          0 0 0 0 0 0
          0 0 0 0 0 0
          0 0 0 0 0 0
          0 0 0 0 0 0
          -0 0 0 -0 0 0
          0 0 0 0 0 0
          0 -0 0 0 0 0
          0 0 0 0 0 0
          0 0 0 0 0 0
          0 0 0 0 0 0
          0 0 0 0 0 0
          0 -0 0 0 0 0
          0 0 -0 0 0 0
          0 0 0 0 0 0
          0 0 0 0 0 0
          0 0 0 0 0 0
          0 0 0 -0 0 0
          0 0 0 0 0 0
          0 -0 0 -0 0 0
          0 0 0 -0 0 0
          0 0 0 0 0 0
          0 0 0 0 0 0
          0 0 -0 0 0 0
          0 0 0 0 0 0
          0 0 0 0 0 0
          0 0 0 0 0 0
          0 0 0 0 0 0
          0 0 0 0 0 0
          0 0 0 0 0 0
          0 -0 0 -0 0 0
          0 0 0 0 0 0
          0 0 0 0 0 0
          0 0 0 0 -0 0
          0 0 0 0 0 0
          0 0 0 0 0 0
          0 0 0 0 0 0
          -0 0 0 0 0 0
          0 0 0 0 -0 0
          0 0 0 0 -0 0
          0 0 0 0 0 0
          0 0 0 0 0 0
          0 0 0 0 0 0
          0 0 0 0 0 -0
          0 0 0 0 0 0
          0 0 0 0 0 0
          0 0 0 0 0 0
          0 0 0 0 0 0
          0 0 0 0 0 0
          0 0 0 0 0 0
          0 0 0 0 0 0
          0 0 0 0 0 0
          0 0 0 0 0 0
          0 0 0 0 0 0
          0 0 0 0 0 0
          0 0 0 0 0 0
          0 0 0 0 0 0
          0 0 -0 0 0 0
          0 0 0 0 0 0
          0 0 0 0 0 0
          0 0 0 0 0 0
          0 -0 0 0 0 0
          0 0 0 0 0 0
          0 0 0 0 0 0
          0 0 0 0 0 0
          0 0 0 0 0 0
          0 0 0 0 0 -0
          0 0 0 -0 -0 0
          0 0 0 0 0 0
          0 0 0 0 0 0
          0 0 0 0 0 0
          0 0 0 0 -0 0
          0 0 0 0 0 0
          0 0 0 0 0 0
          0 0 0 0 0 0
          0 0 0 0 0 0
          0 0 0 0 0 0
          0 0 0 0 0 0
          0 0 0 0 0 0
          0 0 0 0 0 0
          0 0 0 0 0 0
          0 0 0 0 0 0
          0 0 0 0 0 0
          0 0 0 0 0 0
          0 0 0 0 0 0
          0 0 0 0 0 0
          0 0 0 0 -0 0
          0 0 0 0 0 0
          0 0 0 0 0 0
          0 0 -0 0 0 0
          0 0 0 -0 0 0
          0 0 0 0 0 0
          0 0 0 0 0 0
          0 0 0 0 0 0
          0 0 0 0 0 0
          0 0 0 0 0 0
          -0 0 0 0 0 -0
          0 0 0 0 0 0
          0 -0 0 0 0 0
          0 0 0 0 0 0
          0 0 0 0 0 0
          -0 0 0 0 0 0
          0 0 0 0 -0 0
          0 0 0 0 0 0
          -0 0 0 0 0 0
          0 0 0 0 0 0
          0 0 0 0 0 0
          0 0 0 0 0 0
          0 0 0 0 0 0
          0 0 0 0 0 0
          0 0 0 0 0 0
          0 -0 0 0 0 0
          0 0 0 0 0 0
          0 0 0 0 0 0
          0 0 0 0 0 0
          -0 0 0 0 0 0
          0 0 0 0 0 0
          0 0 0 0 0 0
          0 0 0 0 -0 0
          0 0 0 0 0 0
          0 0 0 0 0 0
          0 0 0 0 0 0
          0 0 0 0 0 0
          0 0 0 0 0 0
          0 0 0 0 0 0
          -0 0 0 0 0 0
          -0 0 0 0 0 0
          0 0 0 0 0 0
          0 0 0 -0 0 0
          0 0 0 0 0 0
          0 0 0 0 0 0
          0 0 0 0 0 0
          0 0 0 -0 0 0
          0 0 0 0 0 0
          0 0 0 0 0 0
          0 0 0 0 0 0
          0 0 0 0 0 0
          0 0 0 0 -0 0
          0 0 0 -0 0 0
          0 0 0 0 0 0
          0 0 0 0 0 0
          0 -0 0 0 0 -0
          0 0 0 0 0 0
          -0 0 0 0 0 0
          0 0 0 0 0 0
          0 0 0 0 0 0
          0 0 0 0 0 0
          0 0 0 0 0 0
          0 0 0 0 0 0
          0 0 0 0 0 0
          -0 0 0 0 0 0
          -0 0 0 0 0 0
          -0 0 0 0 0 0
          0 0 0 0 0 0
          0 0 0 0 -0 0
          0 0 0 0 0 0
          0 0 0 0 0 0
          0 0 -0 0 0 0
          0 0 0 0 -0 0
          0 0 0 0 0 0
          0 0 0 0 0 0
          0 0 0 0 0 0
          0 0 0 0 0 0
          0 0 0 0 0 0
          0 0 -0 -0 0 0
          0 0 0 0 0 0
          0 0 0 0 0 -0
          0 0 0 0 0 0
          0 0 0 0 0 0
          0 0 0 0 0 0
          0 0 0 0 0 -0
          0 0 0 0 0 0
          0 0 0 0 0 0
          0 0 -0 0 0 0
          0 0 0 0 -0 0
          0 0 0 0 0 0
          0 0 0 -0 0 0
          0 -0 0 0 0 0
          0 0 0 0 0 0
          0 0 0 0 0 0
          0 0 0 0 0 0
          0 0 0 0 0 0
          0 0 0 0 0 0
          0 0 0 0 0 0
          0 0 0 0 0 0
          0 0 0 0 0 0
          -0 0 0 0 0 0
          0 0 0 0 0 0
          0 0 0 0 0 0
          0 0 0 0 0 0
          0 0 0 0 0 0
          0 0 0 0 0 0
          0 0 -0 0 0 0
          0 0 0 0 0 0
          0 0 0 0 0 0
          0 0 0 0 0 0
          0 0 0 0 0 0
          0 0 0 0 0 0
          0 0 0 -0 0 0
          0 0 0 0 0 0
          0 0 0 0 0 0
          0 0 0 0 0 0
          0 0 0 0 0 0
          0 0 0 0 0 0
          0 0 0 0 0 0
          0 0 0 0 0 0
          0 0 0 0 0 0
          0 0 0 0 0 -0
          0 0 0 0 0 0
          0 0 0 0 0 0
          0 0 0 0 0 0
          0 0 0 0 0 0
          0 0 0 0 0 0
          0 0 0 0 0 0
          0 0 0 0 0 0
          0 0 0 0 0 0
          0 0 0 0 -0 0
          0 0 0 0 0 0
          0 0 0 0 0 0
          0 0 0 0 0 0
          0 0 0 0 0 0
          0 -0 0 0 0 0
          0 0 0 0 0 0
          0 0 0 0 0 0
          0 -0 0 0 0 0
          0 0 0 0 0 0
          0 0 0 -0 0 0
          0 0 0 0 0 0
          0 0 -0 0 0 0
          0 0 0 0 0 0
          0 0 0 0 0 0
          0 0 0 0 0 0
          0 0 0 0 0 0
          0 0 0 0 0 0
          0 0 0 0 0 0
          0 0 0 0 0 0
          0 0 0 0 0 0
          0 0 0 0 0 0
          -0 0 0 0 0 0
          0 0 0 0 0 0
          0 -0 0 0 0 0
          0 0 0 0 0 0
          0 0 0 0 0 0
          0 0 0 0 0 0
          0 0 0 0 0 0
          0 0 0 0 0 -0
          0 0 0 0 0 0
          0 0 0 0 0 0
          0 0 0 0 0 0
          0 0 0 0 0 0
          0 0 0 0 0 0
          0 0 0 0 0 0
          0 0 0 0 0 0
          -0 0 0 0 0 0
          0 0 0 0 0 0
          0 0 0 0 0 0
          0 0 0 0 0 0
          0 0 0 0 0 0
          0 0 0 0 0 0
          0 0 0 0 0 -0
          0 0 0 0 0 0
          0 0 0 0 0 0
          0 0 0 0 0 0
          0 0 0 0 0 0
          0 0 0 0 0 0
          0 0 0 0 0 0
          0 0 0 0 -0 0
          0 0 0 0 0 0
          0 0 -0 0 0 0
          0 0 0 0 0 0
          0 0 0 -0 0 0
          0 0 0 0 0 0
          0 0 0 0 0 0
          0 0 0 0 0 0
          0 0 0 0 0 0
          0 0 0 0 0 0
          0 0 0 0 0 0
          0 0 0 0 0 0
          0 0 0 0 0 0
          0 0 0 0 0 0
          0 0 0 -0 0 0
          0 0 0 -0 0 0
          0 0 0 0 0 0
          0 0 0 0 0 0
          0 0 0 0 0 0
          0 0 0 0 0 0
          0 0 0 0 0 0
          0 0 0 0 0 0
          0 0 0 0 0 0
          0 0 0 0 0 0
          0 0 0 0 0 0
          0 0 0 0 0 0
          0 0 0 0 0 0
          0 0 0 0 0 0
          0 0 0 0 0 0
          -0 0 0 0 0 0
          0 0 0 0 0 -0
          0 -0 0 0 0 0
          0 0 0 0 0 0
          0 0 0 0 0 0
          0 0 0 0 0 0
          0 0 0 0 0 0
          0 0 0 0 0 0
          0 0 0 0 0 0
          0 0 0 0 0 0
          0 0 0 0 0 0
          0 0 -0 0 0 0
          0 -0 0 0 0 0
          0 0 -0 0 0 0
          0 0 0 0 0 0
          0 0 0 0 -0 0
          0 0 0 0 0 0
          0 0 0 0 0 0
          0 0 0 0 0 0
          0 0 0 0 0 0
          0 0 0 0 0 0
          0 -0 0 0 -0 0
          0 0 0 0 0 0
          0 0 0 0 0 0
          0 0 0 0 0 0
          0 0 0 0 0 0
          0 0 0 0 0 0
          0 0 0 0 0 0
          0 0 0 0 0 0
          0 0 0 0 0 0
          0 0 0 0 0 0
          0 0 0 0 0 0
          0 0 0 0 0 0
          0 0 0 0 0 0
          0 0 0 0 0 0
          0 -0 0 0 0 0
          0 0 0 0 0 0
          0 -0 0 0 0 0
          0 0 0 0 0 0
          0 0 0 -0 0 0
          0 0 0 0 0 -0
          0 0 0 0 0 0
          0 0 0 -0 0 0
          0 0 0 0 0 0
          0 0 0 0 0 0
          0 0 -0 0 0 0
          0 0 0 0 0 0
          0 0 0 0 0 0
          0 0 -0 0 0 0
          0 0 0 0 0 0
          0 0 0 0 0 0
          0 0 0 0 0 0
          0 0 0 0 0 0
          0 0 0 0 0 0
          0 0 0 0 -0 0
          0 0 0 0 0 0
          0 0 0 0 0 0
          0 0 0 0 0 0
          -0 0 0 0 0 0
          0 0 0 0 0 0
          0 0 0 0 0 0
          0 0 0 0 0 0
          0 0 0 0 0 0
          0 0 0 0 0 0
          0 0 0 0 0 0
          0 0 0 0 0 0
          0 0 0 0 0 0
          0 0 0 0 0 0
          0 0 0 0 0 0
          0 0 0 0 0 0
          0 0 0 0 0 0
          0 0 0 0 0 0
          0 0 0 0 0 0
          0 0 0 0 -0 0
          0 0 0 0 0 0
          0 0 0 0 0 0
          0 0 0 0 0 -0
          0 0 0 0 0 0
          0 0 0 0 0 0
          0 0 0 0 -0 0
          0 0 0 0 0 0
          0 0 0 0 0 0
          0 0 0 0 0 -0
          0 0 0 0 0 0
          0 0 0 0 0 0
          0 0 0 0 -0 0
          0 0 0 0 0 0
          0 0 0 0 0 0
          0 0 0 0 0 0
          0 0 0 0 0 -0
          0 0 0 0 0 0
          0 0 0 0 0 0
          0 0 0 0 0 0
          0 -0 0 0 0 0
          0 0 0 0 0 0
          0 0 0 0 0 0
          0 0 0 0 0 0
          0 0 -0 0 0 0
          0 0 0 0 0 0
          0 0 0 0 0 0
          0 0 0 0 0 -0
          0 0 0 0 0 0
          0 0 0 0 0 0
          0 0 0 0 0 -0
          0 0 0 0 0 0
          0 0 0 -0 0 0
          0 0 -0 -0 0 0
          0 0 0 0 0 0
          0 0 0 0 0 0
          0 0 0 0 0 0
          0 0 0 0 0 0
          0 0 0 0 0 0
          -0 0 0 0 0 0
          0 0 0 0 0 0
          0 0 0 0 0 0
          0 0 0 0 0 0
          0 0 0 0 0 0
          0 0 0 0 0 0
          0 0 -0 0 0 0
          0 0 0 0 0 0
          0 0 0 0 -0 0
          0 0 0 0 0 0
          0 0 0 0 0 0
          0 0 0 0 0 0
          0 0 0 0 0 -0
          0 0 0 0 0 0
          0 0 0 0 0 0
          0 0 0 0 0 0
          0 0 0 0 0 0
          -0 0 0 0 0 0
          0 -0 0 0 0 0
          0 -0 0 0 0 0
          0 0 0 0 0 0
          0 -0 0 0 0 0
          0 0 0 0 -0 0
          0 -0 0 0 -0 0
          0 0 0 0 0 0
          0 0 0 0 0 0
          0 0 0 0 0 0
          -0 0 0 0 0 0
          0 0 0 0 0 -0
          0 0 0 0 0 0
          0 -0 0 0 0 0
          0 0 0 0 0 0
          0 0 0 0 0 0
          0 0 0 0 0 0
          0 0 0 0 0 0
          0 0 -0 0 0 0
          0 -0 0 0 0 0
          0 0 0 0 0 0
          0 0 0 0 0 0
          0 0 0 0 0 0
          0 0 0 0 0 0
          0 0 0 0 0 0
          0 0 0 0 -0 0
          -0 0 0 0 0 0
          0 0 0 0 -0 0
          0 0 0 -0 0 0
          0 0 0 0 0 0
          0 0 0 0 0 0
          0 0 0 0 0 0
          0 0 0 0 0 0
          0 0 0 0 0 0
          0 0 0 -0 0 0
          0 0 0 0 0 0
          0 0 0 0 0 0
          0 0 0 0 0 0
          0 0 0 0 0 -0
          0 0 -0 0 -0 0
          0 0 0 0 0 0
          0 0 0 0 0 0
          0 0 0 0 0 0
          0 0 0 0 0 0
          -0 0 0 0 0 0
          0 0 0 0 0 0
          0 0 0 0 0 0
          0 0 0 0 0 0
          0 0 0 0 0 0
          0 0 0 0 0 0
          -0 0 0 0 0 0
          0 0 0 0 0 -0
          0 0 0 0 -0 0
          0 0 0 0 0 0
          0 0 0 -0 0 0
          0 0 0 -0 0 0
          0 0 0 0 0 0
          0 0 0 0 0 0
          -0 0 0 0 0 0
          0 0 0 0 0 0
          -0 0 0 0 0 0
          0 0 0 0 0 0
          -0 0 0 0 0 0
          0 0 0 0 0 0
          0 0 0 0 0 0
          0 0 0 0 0 0
          0 0 0 0 0 0
          0 0 0 -0 0 0
          0 0 0 0 0 0
          0 0 0 0 0 0
          0 0 0 0 -0 0
          0 -0 0 0 0 -0
          -0 0 0 0 0 0
          0 0 0 0 0 0
          0 0 0 0 0 0
          0 0 0 0 0 0
          0 0 0 0 -0 0
          0 0 0 0 0 0
          0 0 0 0 0 0
          0 0 0 0 0 0
          0 0 0 0 0 0
          0 0 0 0 0 0
          0 0 0 0 0 0
          0 0 0 0 0 0
          0 0 0 -0 0 0
          0 0 0 0 0 0
          0 0 0 0 0 0
          0 0 0 0 0 0
          0 -0 0 0 0 0
          0 0 0 -0 0 0
          0 0 0 0 0 0
          0 0 0 0 0 0
          0 0 0 0 0 -0
          0 0 0 0 0 0
          0 0 0 0 0 0
          0 0 0 0 0 0
          0 -0 0 0 0 0
          0 0 0 0 0 0
          0 0 0 0 0 0
          0 0 0 0 0 0
          0 0 0 0 0 0
          0 0 0 0 0 0
          0 0 0 0 0 0
          0 0 0 0 0 0
          0 0 0 0 0 0
          0 -0 0 0 0 0
          0 0 0 0 0 0
          0 0 0 0 0 0
          0 0 0 0 0 0
          0 0 0 0 0 0
          0 0 0 0 0 0
          0 0 0 0 0 0
          0 0 0 0 0 0
          0 0 0 0 0 0
          0 0 -0 0 0 0
          0 0 0 0 0 0
          0 0 0 0 0 0
          0 0 0 -0 0 0
          0 0 0 0 0 0
          0 0 0 0 0 0
          0 0 0 0 0 0
          0 0 -0 0 0 0
          0 0 0 0 0 -0
          0 0 0 0 0 0
          0 0 0 0 0 0
          0 0 0 0 0 0
          0 0 0 0 0 0
          0 0 -0 -0 0 0
          0 0 0 0 0 0
          0 0 0 0 0 0
          0 -0 0 0 0 0
          0 0 0 0 0 0
          0 0 0 0 0 0
          -0 0 0 0 0 0
          0 0 0 0 -0 0
          0 0 0 0 0 0
          0 0 0 0 0 0
          0 0 0 0 0 0
          0 0 0 0 -0 0
          0 0 0 0 0 0
          0 0 0 0 0 0
          0 0 0 0 0 -0
          0 0 0 0 0 0
          0 -0 0 0 0 0
          0 0 0 0 0 0
          0 -0 0 0 0 0
          0 0 0 0 0 0
          0 0 0 0 0 0
          0 0 0 0 0 0
          0 0 0 0 0 0
          0 0 0 0 0 0
          -0 0 0 -0 0 0
          0 0 0 0 0 0
          0 0 0 -0 0 0
          0 0 0 0 0 0
          0 0 0 0 0 0
          0 0 0 0 0 0
          0 0 0 0 0 0
          0 -0 0 0 0 0
          0 0 -0 0 -0 0
          0 0 0 0 0 0
          0 0 0 0 0 0
          0 0 0 0 0 0
          0 0 0 0 0 0
          0 0 0 0 0 0
          0 0 0 0 -0 0
          0 0 0 0 0 0
          0 0 0 0 0 0
          0 0 0 0 0 0
          0 0 0 0 0 0
          0 0 -0 0 0 0
          0 -0 0 0 0 0
          0 0 0 0 0 0
          0 0 0 0 0 0
          0 -0 0 0 0 0
          0 0 0 0 0 0
          0 0 0 0 0 0
          0 0 0 0 0 0
          0 0 0 0 0 0
          0 0 0 0 0 0
          0 0 0 0 0 0
          0 0 0 0 0 0
          0 0 0 0 -0 0
          0 0 0 0 0 0
          0 0 0 0 0 0
          0 0 0 0 0 0
          0 0 0 0 0 0
          0 0 0 0 0 -0
          0 0 0 0 0 0
          0 0 0 0 0 -0
          0 0 0 0 0 0
          0 0 0 0 0 0
          0 0 0 0 0 0
          0 0 0 0 0 -0
          0 -0 0 0 0 0
          0 0 0 0 0 -0
          0 0 0 0 0 0
          0 0 0 0 0 0
          0 0 0 0 0 0
          0 0 0 0 0 0
          0 0 0 0 0 0
          0 0 0 0 0 0
          0 0 0 0 0 0
          0 0 0 -0 0 0
          0 0 0 0 0 0
          0 0 0 0 0 0
          0 0 0 0 0 0
          0 0 0 0 -0 0
          0 0 0 0 0 0
          0 0 0 0 0 0
          0 0 0 0 0 -0
          0 0 0 0 0 0
          -0 0 0 0 0 0
          0 0 0 0 0 0
          0 -0 0 0 0 0
          0 0 0 0 0 0
          0 0 0 0 0 0
          0 0 0 0 0 0
          0 0 0 0 0 0
          0 0 -0 0 0 0
          0 0 0 0 0 0
          0 0 0 0 0 -0
          0 0 0 0 0 0
          0 0 0 0 0 0
          0 0 0 0 0 0
          0 0 0 0 0 0
          0 0 0 0 0 0
          0 0 0 0 0 0
          0 0 0 0 0 0
          0 0 0 0 0 0
          0 0 0 0 0 0
          0 0 0 0 0 0
          0 0 0 0 0 0
          0 0 0 0 0 0
          0 0 0 0 0 0
          0 0 0 0 0 -0
          0 -0 0 0 0 0
          0 0 0 0 0 0
          0 0 0 0 0 0
          0 0 -0 0 0 0
          0 0 0 0 0 0
          0 0 0 0 0 0
          0 0 0 0 0 0
          0 0 0 0 0 0
          0 0 0 0 -0 0
          0 0 0 0 0 -0
          0 0 0 0 0 0
          0 0 0 0 0 0
          0 0 0 0 0 0
          0 0 -0 0 0 0
          0 0 -0 0 0 0
          -0 0 0 0 0 0
          0 0 0 0 0 0
          -0 0 0 0 -0 0
          0 0 0 0 0 0
          0 0 0 0 0 0
          0 -0 0 0 0 0
          0 0 0 0 0 0
          0 0 0 0 0 0
          0 0 0 0 0 0
          0 0 0 0 0 0
          0 0 0 0 0 0
          -0 0 0 0 0 0
          0 0 0 0 0 0
          0 0 0 0 0 0
          0 0 0 0 0 0
          0 0 0 0 0 0
          0 0 0 0 0 0
          0 0 0 0 0 0
          0 0 0 0 0 0
          0 0 0 0 0 0
          0 0 0 0 0 0
          0 0 0 0 0 0
          0 0 0 0 0 0
          0 0 0 0 0 0
          0 0 0 0 0 0
          0 0 0 0 0 0
          0 0 0 0 0 0
          0 0 0 0 0 0
          0 0 0 0 0 0
          0 0 0 -0 0 0
          0 0 0 -0 0 0
          0 0 0 0 0 0
          0 0 0 0 0 0
          0 0 0 0 0 0
          0 0 0 0 0 0
          0 0 0 0 0 0
          0 0 0 0 0 0
          0 0 0 0 0 0
          0 0 0 0 0 0
          0 0 0 0 0 0
          0 0 0 0 0 -0
          -0 0 0 0 0 0
          0 0 0 0 0 0
          0 0 0 0 0 0
          0 0 0 0 0 0
          0 0 0 0 0 0
          0 0 0 0 0 0
          0 0 0 0 0 -0
          0 0 0 0 0 0
          0 0 0 0 0 0
          0 0 0 0 0 0
          0 -0 0 0 0 0
          0 0 0 0 0 0
          0 0 0 0 0 0
          0 0 0 0 0 0
          0 0 0 0 0 -0
          0 0 0 0 0 0
          0 0 0 0 0 0
          0 0 0 0 0 -0
          0 0 0 0 0 0
          0 0 0 0 0 0
          0 0 0 0 0 0
          0 0 0 0 0 0
          0 0 0
        </DataArray>
        <DataArray type="Float64" Name="Strain" NumberOfComponents="9" format="ascii" RangeMin="0" RangeMax="0">
          0 0 0 0 0 0
          0 0 0 0 0 0
          0 0 0 0 0 0
          0 0 0 0 0 0
          0 0 0 0 0 0
          0 0 0 0 0 0
          0 0 0 0 0 0
          0 0 0 0 0 0
          0 -0 0 0 0 0
          0 0 0 0 0 0
          0 0 0 0 0 0
          0 0 0 0 0 0
          0 0 0 0 0 0
          0 0 0 0 0 0
          0 0 0 0 0 0
          -0 0 0 0 0 0
          0 0 0 0 0 0
          0 0 0 0 0 0
          0 0 0 0 0 0
          0 0 0 0 0 0
          0 0 0 0 0 0
          0 0 0 0 0 0
          0 0 0 0 0 0
          0 0 0 0 0 0
          0 0 0 0 0 0
          0 0 0 0 0 0
          0 0 0 0 0 0
          0 0 0 0 0 0
          0 0 0 0 0 0
          0 0 0 0 0 0
          0 0 0 0 -0 0
          0 0 0 -0 0 0
          0 0 0 0 0 0
          -0 0 0 0 0 0
          0 0 0 0 0 0
          0 0 0 0 0 0
          0 0 0 0 0 0
          0 0 0 0 0 0
          0 0 0 0 0 0
          0 0 0 0 0 0
          0 0 0 0 0 0
          0 0 0 0 0 0
          0 0 0 0 0 0
          0 0 0 0 0 0
          0 0 0 0 0 0
          0 0 0 0 0 0
          0 0 0 0 0 0
          0 0 0 0 0 0
          0 0 0 0 0 0
          0 0 0 0 0 0
          0 0 0 0 0 0
          0 0 0 0 0 0
          0 0 0 0 0 0
          0 0 0 0 0 0
          0 0 0 0 0 0
          0 0 0 0 0 0
          0 0 0 0 0 0
          0 0 0 0 0 0
          0 0 0 0 0 0
          0 0 0 0 0 0
          0 0 0 0 0 0
          0 0 0 0 0 0
          0 0 0 0 0 0
          0 0 0 0 0 0
          0 0 0 -0 0 0
          0 0 0 0 0 0
          0 0 0 0 0 0
          0 0 0 0 0 0
          0 0 0 0 0 0
          0 0 0 0 0 0
          0 0 0 0 0 0
          0 -0 0 0 0 0
          0 0 0 0 0 0
          0 0 0 -0 0 0
          0 0 0 0 0 0
          0 0 0 0 0 0
          0 0 0 0 0 0
          0 0 0 0 0 0
          0 0 0 0 0 0
          0 0 0 0 0 0
          0 0 0 0 0 0
          0 0 0 0 0 0
          0 0 0 0 0 0
          0 0 0 0 0 0
          0 0 0 0 0 0
          0 0 0 0 0 0
          0 0 0 0 0 0
          0 0 0 0 0 0
          0 0 0 0 0 0
          0 0 0 0 0 0
          0 0 0 0 0 0
          0 0 0 0 0 0
          0 0 0 0 0 0
          0 0 0 0 0 0
          0 0 0 0 0 0
          0 0 0 0 0 0
          0 0 0 0 0 0
          0 0 0 0 0 0
          0 0 0 0 0 0
          0 0 0 0 0 0
          0 0 0 0 0 0
          0 0 0 0 0 0
          0 0 0 0 -0 0
          0 0 0 0 0 0
          0 0 0 0 0 0
          0 0 0 0 0 0
          0 0 -0 0 0 0
          0 0 0 0 0 0
          0 0 0 0 0 0
          0 0 0 0 0 0
          0 0 0 0 0 0
          0 0 0 0 0 0
          0 0 0 0 0 0
          0 -0 0 0 0 0
          0 0 0 0 0 0
          0 0 0 0 0 0
          0 0 0 0 0 0
          0 0 0 0 0 0
          0 0 0 0 0 0
          0 0 0 0 0 0
          0 0 0 0 0 0
          0 0 0 0 0 0
          0 0 0 0 0 0
          0 0 0 0 0 0
          0 0 0 0 0 0
          0 0 0 0 0 0
          0 0 0 0 0 0
          0 0 0 0 0 0
          0 0 0 0 0 0
          -0 0 0 0 0 0
          0 0 0 0 0 0
          0 0 0 0 0 0
          0 0 0 0 0 0
          0 0 0 0 0 0
          0 0 0 0 0 0
          0 0 0 0 0 0
          0 0 0 0 0 0
          0 0 0 0 0 0
          0 0 0 0 0 0
          0 0 0 0 0 0
          0 0 0 0 0 0
          0 0 0 0 0 0
          0 0 0 0 0 0
          0 0 0 0 0 0
          0 0 0 0 -0 0
          0 0 0 0 0 0
          0 0 0 0 0 0
          0 0 0 0 -0 0
          0 0 0 0 0 0
          0 0 0 0 0 0
          0 0 0 0 0 0
          0 0 0 0 0 0
          0 0 0 0 0 0
          0 0 0 0 0 0
          0 0 0 0 0 0
          0 0 0 0 0 0
          0 0 0 0 0 0
          0 0 0 0 0 0
          0 0 0 0 0 0
          0 0 0 0 -0 0
          0 0 0 0 0 0
          0 -0 0 0 0 0
          0 0 0 0 0 0
          0 0 0 0 0 0
          0 0 0 0 0 -0
          0 0 0 0 0 0
          0 0 0 0 0 0
          0 -0 0 0 0 0
          0 0 0 0 0 0
          0 0 0 0 0 0
          0 0 0 0 0 -0
          0 0 0 0 0 0
          0 0 0 0 0 0
          0 0 0 0 0 0
          0 0 0 0 0 0
          0 0 0 0 0 0
          0 0 0 0 0 0
          0 0 0 0 0 0
          0 0 0 0 0 0
          0 -0 0 0 0 0
          0 0 0 0 0 0
          0 0 -0 0 0 0
          0 0 0 0 0 0
          0 0 0 0 0 0
          0 0 0 0 0 0
          0 0 0 0 0 0
          0 0 0 0 0 0
          0 0 0 0 0 0
          0 0 0 0 0 0
          0 0 0 0 0 0
          0 0 0 0 0 0
          0 0 0 0 0 0
          0 0 0 0 0 0
          0 0 0 0 0 0
          0 0 0 0 0 0
          0 0 0 0 0 0
          0 0 -0 0 0 0
          0 0 0 0 0 0
          0 0 0 0 0 0
          0 0 0 0 0 0
          0 0 0 0 0 0
          0 0 0 0 0 0
          0 0 0 0 0 0
          0 0 0 0 0 0
          0 0 0 0 0 0
          0 0 0 0 0 0
          0 0 0 0 0 0
          0 0 0 0 0 0
          0 0 0 -0 0 0
          0 0 0 0 0 0
          0 0 0 0 0 0
          0 0 0 0 0 0
          0 0 0 0 0 0
          0 0 0 0 0 0
          0 0 0 0 0 0
          0 0 0 0 0 0
          0 0 0 0 -0 0
          0 0 0 0 0 0
          0 0 0 0 0 0
          0 0 0 0 0 0
          0 0 0 0 0 0
          0 0 0 0 0 0
          0 0 0 0 -0 0
          0 0 0 0 0 0
          0 0 0 0 0 0
          0 0 0 0 0 0
          0 0 0 0 0 0
          0 0 0 0 0 0
          0 0 0 0 0 0
          0 0 -0 0 0 0
          0 0 0 0 0 0
          0 0 0 0 0 0
          0 0 0 0 0 0
          0 0 0 0 0 0
          0 0 0 0 -0 0
          0 0 0 0 0 0
          0 0 0 0 0 0
          0 0 0 0 0 0
          0 0 0 0 0 0
          0 0 0 0 0 0
          0 0 0 0 0 0
          0 0 0 0 0 0
          0 0 0 0 0 0
          0 0 0 0 0 0
          0 0 0 0 0 0
          0 0 0 0 0 0
          0 0 0 0 0 0
          0 0 0 0 0 0
          0 0 0 0 0 0
          0 0 0 0 0 0
          0 0 0 0 0 0
          0 0 0 0 0 0
          -0 0 0 0 0 0
          0 0 0 0 0 0
          0 0 0 0 0 0
          0 0 0 0 0 0
          0 0 0 0 0 0
          0 0 0 0 0 0
          0 0 0 0 0 0
          0 0 0 0 0 0
          0 0 0 0 0 0
          0 0 0 0 0 0
          0 0 0 0 0 0
          0 0 0 0 0 0
          0 0 0 0 0 0
          0 0 0 0 0 0
          0 0 0 0 0 0
          -0 0 0 0 0 0
          0 0 0 0 0 0
          0 0 0 0 0 0
          0 0 0 0 0 0
          0 0 0 0 0 0
          0 0 0 0 0 0
          0 0 0 0 0 0
          0 0 0 0 0 0
          0 0 0 0 0 0
          0 0 0 0 -0 0
          0 0 0 0 0 0
          0 -0 0 0 0 0
          -0 0 0 0 0 0
          0 0 0 0 0 0
          0 0 0 0 0 0
          0 0 0 0 0 0
          0 0 0 0 0 0
          0 0 0 0 0 0
          0 0 0 0 0 0
          0 0 0 0 0 0
          0 0 0 0 0 0
          0 0 0 0 0 0
          0 0 0 0 0 0
          0 0 0 0 0 0
          0 0 0 0 0 0
          0 0 0 0 0 0
          0 0 0 0 0 0
          0 0 0 0 0 0
          0 0 0 0 0 0
          0 0 0 0 0 0
          0 0 0 0 -0 0
          0 0 0 0 0 0
          0 0 0 0 0 0
          0 0 0 0 0 0
          0 0 0 0 0 0
          0 0 0 0 0 0
          0 0 0 0 0 0
          0 0 0 0 0 0
          0 0 0 0 0 0
          0 0 0 0 -0 0
          0 0 0 0 0 0
          0 0 0 0 0 0
          0 0 0 0 0 0
          0 0 0 0 0 0
          0 0 0 0 0 0
          0 0 0 0 0 0
          0 0 0 0 0 0
          0 0 0 0 0 0
          0 0 0 0 0 0
          0 0 0 -0 0 0
          0 0 0 0 0 0
          0 0 0 0 0 0
          0 0 0 0 0 0
          0 0 0 0 0 0
          0 0 0 0 0 0
          0 0 0 0 0 0
          0 0 0 0 0 0
          0 0 0 0 0 0
          0 0 0 0 0 0
          0 0 0 0 0 0
          0 0 0 0 0 0
          0 0 0 0 0 0
          0 0 0 0 0 0
          0 0 0 0 -0 0
          0 0 0 0 0 0
          0 0 0 0 0 0
          0 0 0 0 0 0
          0 0 0 0 0 0
          0 0 0 0 0 0
          0 0 0 0 0 0
          0 0 0 0 0 0
          0 0 0 0 0 0
          0 0 0 0 0 0
          0 0 0 0 0 0
          0 0 0 0 0 0
          0 0 0 0 -0 0
          0 0 0 0 0 0
          0 0 0 0 0 0
          0 0 0 0 0 0
          0 0 0 -0 0 0
          0 0 0 0 0 0
          0 0 0 0 0 0
          0 0 0 0 0 0
          0 0 0 0 0 0
          0 0 0 0 0 0
          0 0 0 0 0 0
          0 0 0 0 0 0
          0 0 0 0 0 0
          0 0 0 0 0 0
          0 0 0 0 0 0
          0 0 0 0 0 0
          0 0 0 0 0 0
          0 0 0 0 0 0
          0 0 0 0 -0 0
          0 0 0 0 0 0
          0 0 0 0 0 0
          0 0 0 0 0 0
          0 0 0 0 0 0
          0 0 0 0 0 0
          0 0 0 0 0 0
          0 0 0 0 0 0
          0 0 0 0 0 0
          0 0 0 0 0 0
          0 0 0 0 0 0
          0 -0 0 0 0 0
          0 0 0 0 -0 0
          0 0 0 0 0 0
          0 0 0 0 0 0
          0 0 0 0 0 0
          0 0 0 0 0 0
          0 0 0 0 0 0
          0 0 0 0 0 0
          0 0 0 0 0 0
          0 0 0 0 0 0
          -0 0 0 0 0 0
          0 0 0 0 0 0
          0 0 0 0 0 0
          0 0 0 0 0 0
          0 0 0 0 0 0
          0 0 0 0 0 0
          0 0 0 0 0 0
          0 0 0 0 0 0
          0 -0 0 0 0 0
          0 0 0 0 0 0
          0 0 0 0 0 0
          0 0 0 0 0 0
          0 0 0 0 0 0
          0 0 0 -0 0 0
          0 0 0 0 0 0
          0 0 0 0 0 0
          0 0 -0 0 0 0
          0 0 0 0 0 0
          0 0 0 0 0 0
          0 0 0 0 0 0
          0 0 0 0 0 0
          0 0 0 0 0 0
          0 0 0 0 0 0
          0 0 0 0 0 0
          0 0 0 0 0 0
          0 0 0 0 0 0
          0 0 0 0 0 0
          0 0 0 0 0 0
          0 0 -0 0 0 0
          0 0 0 0 0 0
          0 0 0 0 0 0
          0 0 0 0 0 0
          0 0 0 0 0 0
          0 0 0 0 0 0
          0 0 0 0 0 0
          0 0 0 0 0 0
          0 0 0 0 0 0
          0 0 0 0 0 0
          0 0 0 0 0 0
          0 0 0 0 0 0
          0 0 0 -0 0 0
          0 0 0 0 0 0
          0 0 0 0 0 0
          0 0 0 0 0 0
          0 0 0 0 0 0
          0 0 0 0 0 0
          0 0 0 0 0 0
          0 0 0 0 0 0
          0 0 0 0 -0 0
          0 0 0 -0 0 0
          0 0 0 0 0 0
          0 0 0 0 0 0
          0 0 0 -0 0 0
          0 0 0 0 0 0
          0 0 0 0 0 0
          0 0 0 0 0 0
          0 0 0 0 0 0
          0 0 0 0 0 0
          0 0 0 0 0 0
          0 0 0 0 0 0
          0 0 0 0 0 0
          0 0 0 0 0 0
          0 0 0 0 0 0
          0 0 0 0 0 0
          0 0 0 0 0 0
          0 0 0 0 0 0
          0 0 0 0 0 0
          0 0 0 0 0 0
          0 0 0 0 0 0
          0 0 0 0 0 0
          0 0 0 0 0 0
          0 0 0 0 0 0
          0 0 0 0 0 0
          0 0 0 0 0 0
          0 0 0 0 0 0
          0 0 0 0 0 0
          0 0 0 0 0 0
          0 0 0 0 0 0
          0 0 0 0 0 0
          0 0 0 0 0 0
          0 0 0 0 0 -0
          -0 0 0 0 0 0
          0 0 0 0 0 0
          0 0 0 0 0 0
          -0 0 0 0 0 0
          0 0 0 0 0 0
          0 0 0 0 0 0
          0 0 0 0 0 0
          0 0 0 0 0 0
          0 0 0 0 0 0
          0 0 0 0 0 0
          0 0 0 0 0 0
          0 -0 0 0 0 0
          0 0 0 0 0 0
          0 0 0 -0 0 0
          0 0 0 0 0 0
          0 0 0 0 0 0
          0 0 0 -0 0 0
          0 0 0 0 0 0
          0 0 0 0 0 0
          0 0 0 0 0 0
          0 0 0 0 0 0
          0 0 0 0 0 0
          0 0 0 0 0 0
          0 0 0 0 0 0
          0 0 0 0 0 0
          0 0 0 0 0 0
          0 0 0 0 0 0
          0 0 0 0 0 0
          0 0 0 0 0 0
          0 -0 0 0 0 0
          0 0 0 0 0 0
          0 0 0 0 0 0
          0 0 0 0 0 0
          0 0 0 0 0 0
          0 0 -0 0 0 0
          0 0 0 0 0 0
          0 0 0 0 0 0
          0 0 0 0 0 0
          0 0 0 0 0 0
          0 0 0 0 0 0
          0 0 0 0 0 0
          0 0 0 0 0 0
          0 0 0 0 0 0
          0 0 0 0 0 0
          0 0 0 0 0 0
          -0 0 0 0 0 0
          0 0 0 0 0 0
          0 0 0 0 0 -0
          0 0 0 0 0 0
          0 0 0 0 0 0
          0 -0 0 0 0 0
          0 0 0 0 0 0
          0 0 0 0 0 0
          0 0 0 0 0 0
          0 0 0 0 0 0
          0 0 0 0 0 0
          0 0 0 0 0 -0
          0 0 0 0 0 0
          0 0 0 0 0 0
          0 0 0 0 0 0
          0 0 0 0 0 0
          0 0 0 0 0 0
          0 0 0 0 0 0
          0 0 0 0 0 0
          0 0 0 0 0 0
          0 0 0 0 0 0
          -0 0 0 0 0 0
          0 0 0 0 0 0
          0 0 0 0 0 0
          0 0 0 0 0 0
          0 0 0 -0 0 0
          0 0 0 0 0 0
          0 0 0 0 0 0
          0 0 0 0 0 0
          0 0 0 0 0 0
          0 0 0 0 0 0
          0 0 0 0 0 0
          0 0 0 0 0 0
          0 0 0 0 0 0
          0 0 0 0 0 0
          0 0 0 0 0 0
          0 0 0 0 0 0
          0 0 0 0 0 0
          0 0 0 0 0 0
          0 0 0 0 0 0
          0 0 0 0 0 0
          0 0 0 0 0 0
          0 0 0 0 0 0
          0 0 0 0 0 0
          0 0 0 0 0 0
          0 0 0 0 0 0
          0 0 0 0 0 0
          0 0 0 0 0 0
          0 0 0 0 0 0
          0 0 0 0 0 0
          0 0 0 0 0 0
          -0 0 0 0 0 0
          0 0 0 0 0 0
          0 0 0 0 0 0
          0 0 0 0 0 0
          0 0 0 0 0 0
          0 -0 0 0 0 0
          0 0 0 0 0 0
          0 0 0 0 0 0
          0 0 0 0 0 0
          0 0 0 0 0 0
          0 0 -0 0 0 0
          0 0 0 0 0 0
          0 0 0 0 0 0
          0 0 0 0 0 0
          0 0 0 0 0 0
          -0 0 0 0 0 0
          0 0 0 0 0 0
          0 0 0 0 0 -0
          0 0 0 0 0 0
          0 0 0 0 0 0
          0 0 0 0 0 0
          0 0 0 0 0 0
          0 0 0 0 0 0
          0 0 0 0 0 0
          0 0 0 0 -0 0
          0 0 0 0 0 0
          0 0 0 0 0 0
          0 0 0 0 0 0
          0 0 0 0 0 0
          0 0 0 0 0 0
          0 0 0 0 0 0
          0 0 0 0 0 0
          0 0 0 0 0 -0
          0 0 0 0 0 0
          0 0 0 0 0 0
          0 0 0 0 0 0
          0 0 0 0 0 0
          0 0 -0 0 0 0
          0 0 0 0 0 0
          0 0 0 0 0 0
          0 0 0 0 0 0
          0 0 0 0 0 0
          0 0 0 0 0 0
          0 0 0 0 0 0
          0 0 0 0 0 -0
          0 0 0 0 0 0
          0 0 0 0 0 0
          0 -0 0 0 0 0
          0 0 0 0 0 0
          0 0 0 0 0 0
          0 0 0 0 0 0
          0 0 0 0 -0 0
          0 0 0 0 0 0
          0 0 0 0 0 0
          0 0 0 0 0 0
          0 0 0 0 0 0
          0 0 0 0 0 0
          0 0 0 0 0 0
          0 0 0 0 0 0
          0 0 0 0 0 0
          0 0 0 0 0 0
          0 0 0 0 0 0
          0 0 0 0 0 0
          0 0 0 0 0 0
          0 0 0 0 0 0
          0 0 0 0 0 0
          0 0 0 0 0 0
          0 0 0 0 0 0
          0 0 0 0 0 0
          0 0 0 0 0 0
          0 0 0 0 0 0
          0 0 0 0 0 0
          0 0 0 0 0 0
          0 0 0 0 0 0
          0 0 0 0 0 0
          0 0 0 0 0 0
          0 0 0 0 0 0
          0 0 0 0 0 -0
          0 0 0 0 0 0
          0 0 0 -0 0 0
          0 0 0 0 0 0
          0 0 0 0 0 0
          0 0 0 0 0 0
          0 0 0 0 0 0
          -0 0 0 0 0 0
          0 0 0 0 0 0
          0 0 0 0 0 0
          0 0 0 0 0 0
          0 0 0 0 0 0
          0 0 0 0 0 -0
          -0 -0 0 -0 -0 0
          0 0 0 0 0 0
          0 0 0 0 0 0
          0 0 0 0 0 0
          0 0 0 0 0 0
          0 0 0 0 0 0
          0 0 0 0 0 0
          0 0 0 0 0 0
          0 0 0 0 0 0
          0 0 0 0 0 0
          0 0 0 0 0 0
          0 -0 0 0 0 0
          0 0 0 0 0 0
          0 0 0 0 0 0
          0 0 0 0 0 0
          0 0 0 0 0 0
          0 0 0 0 0 0
          0 0 0 0 0 0
          0 0 0 0 0 0
          0 0 0 0 0 0
          0 0 0 0 0 0
          0 0 0 0 0 0
          0 0 0 0 0 0
          0 0 0 0 0 0
          -0 0 0 0 0 0
          0 0 0 0 0 0
          0 0 0 0 0 0
          0 0 0 0 0 0
          0 0 0 0 0 0
          0 0 0 0 0 0
          0 0 0 0 0 0
          0 0 0 0 0 0
          0 0 0 0 0 0
          0 0 0 0 -0 0
          0 0 0 0 0 0
          0 0 0 0 0 -0
          0 0 0 0 0 0
          0 0 0 -0 0 0
          0 0 0 0 0 0
          0 0 0 0 0 0
          0 0 -0 0 0 0
          0 0 0 0 0 0
          0 0 0 0 0 0
          0 0 0 0 0 0
          0 0 0 0 0 0
          0 0 0 0 0 0
          0 0 0 0 0 0
          0 -0 0 0 0 0
          0 0 0 0 -0 0
          0 0 0 0 0 0
          0 0 0 0 0 0
          0 0 0 0 0 0
          0 0 0 0 0 0
          0 0 0 0 0 0
          0 0 0 0 0 0
          0 0 0 0 0 0
          0 0 0 0 0 0
          0 0 0 0 0 0
          0 0 0 0 0 0
          0 0 0 0 0 0
          0 0 0 0 0 0
          0 0 0 0 0 0
          0 0 0 0 0 0
          0 0 0 0 0 0
          0 0 0 0 0 0
          0 -0 0 0 0 0
          0 0 0 0 0 0
          0 0 0 0 0 0
          0 0 0 0 0 0
          0 0 0 0 0 0
          0 0 0 0 0 0
          0 0 0 0 0 0
          0 0 0 0 0 0
          0 0 0 0 0 0
          0 0 0 0 0 0
          0 0 0 0 0 0
          0 0 0 0 0 0
          0 0 0 0 0 -0
          0 0 0 0 0 0
          0 0 0 0 0 0
          0 0 0 0 0 0
          0 0 0 0 0 0
          0 0 0 0 0 0
          0 0 0 0 0 0
          0 0 0 0 0 0
          0 0 0 -0 0 0
          0 0 0 0 0 0
          0 0 0 0 0 0
          0 0 0 0 0 0
          0 0 0 0 0 0
          0 0 0 0 0 0
          0 0 0 0 0 0
          0 0 0 0 0 0
          0 0 0 0 0 0
          0 0 0 0 0 0
          0 -0 0 0 0 0
          0 0 0 0 0 0
          0 0 0 0 0 0
          0 0 0 0 0 0
          0 0 0 0 0 0
          0 0 0 0 0 0
          0 0 0 0 0 0
          0 0 0 0 0 0
          0 0 0 0 0 0
          0 0 0 0 0 0
          0 0 0 0 0 0
          0 0 0 0 0 0
          0 0 0 0 0 -0
          0 0 0 0 0 0
          0 0 0 0 0 0
          0 0 0 0 0 0
          0 0 0 0 0 0
          0 0 0 0 0 0
          0 0 0 0 0 0
          0 0 0 0 0 0
          0 0 0 0 0 0
          0 0 0 0 0 0
          0 0 0 0 0 0
          0 0 0 -0 0 0
          0 0 0 0 0 0
          0 0 0 0 0 0
          0 0 0 0 0 0
          0 0 0 0 0 0
          0 0 0 0 0 0
          0 0 0 0 0 0
          0 0 0 0 0 0
          0 0 0 0 0 0
          0 0 0 -0 0 0
          0 0 0 0 0 0
          0 0 0 0 0 0
          0 0 0 0 0 0
          0 0 0 0 0 0
          0 0 0 0 0 0
          0 0 0 0 0 0
          0 0 0 0 0 0
          0 0 0 0 0 0
          0 0 0 0 0 0
          0 0 0 0 0 -0
          0 0 0 0 0 0
          0 0 0 0 0 0
          0 0 0 0 0 0
          0 0 0 0 0 0
          0 0 0 0 0 0
          0 0 0 0 0 0
          0 0 0 0 0 0
          0 0 0 0 0 0
          0 0 0 0 0 0
          0 0 0 0 0 0
          0 0 0 0 0 0
          0 0 0 0 0 0
          0 0 0 0 0 0
          0 0 0 0 0 0
          0 0 0 0 0 0
          0 0 0 0 0 0
          0 0 0 0 0 0
          0 0 0 0 0 0
          0 0 0 0 0 0
          0 0 0 0 0 0
          0 0 0 0 0 0
          0 0 0 0 0 0
          0 0 0 0 0 0
          0 0 0 0 0 0
          0 0 0 0 0 0
          0 0 0 0 0 0
          0 0 0 0 0 0
          0 0 0 0 0 0
          0 0 0 0 0 0
          0 0 0 0 0 0
          0 0 0 0 0 0
          0 0 0 0 0 0
          0 0 0 0 0 0
          0 0 0 0 -0 0
          0 0 0 0 0 0
          0 0 0 0 0 0
          0 0 0 0 0 0
          0 0 0 0 0 0
          0 0 0 0 0 0
          0 0 0 0 0 0
          0 0 0 0 0 0
          0 0 0 0 0 0
          0 0 0 0 0 0
          0 0 0 0 0 0
          0 0 0 0 0 0
          -0 0 0 0 0 0
          0 0 0 0 0 0
          0 0 0 0 0 0
          0 0 0 0 0 0
          0 0 0 0 0 0
          0 0 0 0 0 0
          0 0 0 0 -0 0
          0 0 0 0 0 0
          0 -0 0 0 0 0
          0 0 0 0 0 0
          0 0 0 -0 0 0
          0 0 0 0 0 0
          0 0 0 0 0 0
          0 0 0 0 0 0
          0 0 0 0 0 0
          0 0 0 0 0 0
          0 0 0 0 0 0
          0 0 0 0 0 0
          -0 0 0 0 0 0
          0 0 0 0 0 0
          0 0 0 0 0 0
          0 0 0 0 0 0
          0 0 0 -0 0 0
          0 0 0 0 0 0
          0 0 0 0 0 0
          0 0 0 0 0 0
          0 0 0 0 0 0
          0 0 0 0 0 0
          0 0 0 0 0 0
          0 0 0 0 0 0
          0 0 0 0 0 0
          0 0 0 0 0 0
          0 0 0 0 0 0
          0 0 0 0 0 0
          0 0 0 0 0 0
          0 0 0 0 0 0
          -0 0 0 0 0 0
          0 0 0 0 0 0
          0 0 0 0 0 0
          0 0 0 0 0 0
          0 0 0 0 0 0
          0 0 0 0 0 0
          0 0 0 0 0 0
          0 0 0 0 0 0
          0 0 0 0 0 0
          0 0 0 0 0 0
          0 0 0 -0 0 0
          0 0 0 0 0 0
          0 0 0 0 0 0
          0 0 0 0 0 0
          0 0 0 0 0 0
          0 0 0 0 0 0
          0 0 0 0 0 0
          0 0 0 0 0 0
          0 0 0 0 0 0
          0 0 0 0 0 0
          0 0 0 0 0 0
          0 0 0 0 0 0
          0 0 0 0 0 0
          0 0 0 0 0 0
          0 0 0 0 0 0
          0 0 0 0 0 0
          0 0 0 0 0 0
          0 0 0 0 0 0
          0 0 0 0 0 0
          0 0 0 0 0 0
          0 0 0 0 0 0
          0 0 0 0 0 0
          0 0 0 0 0 -0
          0 0 0 0 0 0
          0 0 0 0 0 0
          0 0 0 0 0 0
          0 0 0 0 0 0
          0 0 0 0 0 0
          0 0 0 0 0 0
          0 0 0 0 0 0
          0 0 0 0 0 0
          0 0 0 0 0 0
          0 0 0 0 0 0
          0 0 0 0 0 0
          0 -0 0 0 0 0
          0 0 0 0 0 0
          0 0 0 -0 0 0
          0 0 0 0 0 0
          0 0 0 0 0 0
          0 0 0 0 0 0
          0 0 0 0 0 0
          0 0 0 0 0 0
          0 0 0 0 0 0
          0 0 0 0 0 0
          0 0 0 0 0 0
          0 0 0 0 0 0
          0 -0 0 0 0 0
          0 0 0 0 -0 0
          0 0 0 0 0 0
          0 0 0 0 0 0
          0 0 0 0 0 0
          0 0 -0 0 0 0
          0 0 0 0 0 0
          0 0 0 0 0 0
          0 0 0 0 0 0
          0 0 0 0 0 0
          0 0 0 0 0 0
          0 0 0 0 0 0
          0 0 0 0 0 0
          0 0 0 0 0 0
          0 0 0 -0 0 0
          0 0 0 0 0 0
          0 0 0 0 -0 0
          0 0 0 -0 0 0
          0 0 0 0 0 0
          0 0 0 0 0 0
          0 0 0 0 0 0
          0 0 0 0 0 0
          0 0 0 0 0 0
          0 0 0 0 0 0
          0 0 0 0 0 0
          0 0 0 0 0 0
          0 0 0 0 0 0
          0 0 0 0 0 0
          0 0 0 0 0 0
          0 0 0 0 0 0
          0 0 0 0 0 0
          0 0 0 0 0 0
          0 0 0 -0 0 0
          0 0 0 0 0 0
          0 0 0 0 0 0
          0 0 0 0 0 0
          0 0 0 0 0 0
          0 0 0 0 -0 0
          0 0 0 0 0 0
          0 0 0 0 0 0
          0 0 0 0 0 0
          0 0 0 0 0 0
          0 0 0 0 0 0
          0 0 0 0 0 0
          0 0 0 0 0 0
          0 0 0 0 0 0
          0 0 0 0 0 0
          0 0 0 0 0 0
          0 0 0 0 0 0
          0 0 0 0 0 0
          0 0 -0 -0 0 0
          0 0 0 0 0 0
          0 0 0 0 0 0
          0 0 -0 0 0 0
          0 0 0 0 0 0
          0 0 0 0 0 0
          0 0 0 -0 0 0
          0 0 0 0 0 0
          0 0 0 0 0 0
          0 0 0 0 0 0
          0 0 0 0 0 0
          0 0 0 0 0 0
          0 0 0 0 0 0
          0 0 0 0 0 0
          0 0 0 0 0 0
          0 0 0 0 0 0
          0 0 0 0 0 0
          0 0 0 0 -0 0
          0 0 0 0 0 0
          0 0 0 0 0 0
          0 0 0 0 0 0
          0 0 0 0 0 0
          0 0 0 0 0 0
          0 0 0 0 0 0
          0 0 0 0 0 0
          0 0 0 0 0 0
          0 0 0 0 0 0
          0 0 0 0 0 0
          0 -0 0 0 0 0
          -0 0 0 0 0 0
          0 0 0 0 0 0
          0 0 0 0 0 0
          0 0 0 0 0 0
          0 0 0 -0 0 0
          0 0 0 0 0 0
          0 0 0 0 0 0
          0 0 0 -0 0 0
          0 0 0 0 0 0
          0 0 0 0 0 0
          0 0 0 0 0 0
          0 0 0 0 0 0
          0 0 0 0 0 0
          0 0 0 0 0 0
          0 0 0 0 0 0
          0 0 0 0 0 0
          0 0 0 0 0 0
          0 0 0 0 0 0
          0 0 0 0 0 0
          0 0 0 0 0 0
          0 0 0 0 0 0
          0 0 0 0 0 0
          0 0 0 0 0 0
          0 0 0 0 0 0
          0 0 0 0 0 0
          0 0 0 0 0 0
          0 0 0 0 0 0
          0 0 0 0 0 0
          0 0 0 -0 0 0
          0 0 0 0 0 0
          0 0 0 0 0 0
          0 0 0 0 0 0
          0 0 0 0 0 0
          0 0 0 0 0 0
          0 0 0 0 0 0
          0 0 0 0 0 0
          0 0 0 0 0 0
          0 0 0 0 0 0
          0 0 0 0 0 0
          0 0 0 0 0 0
          0 0 0 0 0 0
          0 0 0 0 0 0
          0 0 0 0 0 0
          0 0 0 0 0 0
          0 0 0 0 0 0
          0 0 0 0 0 0
          0 0 0 0 0 0
          0 0 0 0 0 0
          0 0 0 0 0 0
          0 0 0 0 0 0
          0 0 0 0 0 0
          0 0 0 0 0 0
          0 0 0 0 0 0
          0 0 0 0 0 0
          0 0 0 0 0 0
          0 0 0 0 0 0
          0 0 0 0 0 0
          0 0 0 0 0 0
          0 0 0 -0 0 0
          0 0 0 0 0 0
          0 0 0 0 0 0
          0 0 0 0 0 0
          0 0 0 0 0 0
          0 0 0 0 0 0
          0 0 0 0 0 0
          0 -0 0 0 0 0
          0 0 0 0 0 0
          0 0 0 0 0 0
          0 0 0 0 0 0
          0 0 0 0 0 0
          0 0 0 -0 0 0
          0 0 0 0 0 0
          0 0 0 0 0 0
          0 0 0 0 0 0
          0 0 0 0 0 0
          0 0 0 0 0 0
          0 0 0 0 0 0
          0 0 0 0 0 0
          0 0 0 0 0 0
          0 0 0 -0 0 0
          0 0 0 0 0 0
          0 0 0 0 0 0
          0 0 0 -0 0 0
          0 0 0 0 0 0
          0 0 0 0 0 0
          0 0 0 0 0 0
          0 0 0 0 0 0
          0 0 0 0 0 0
          0 0 0 -0 0 0
          0 0 0 0 0 0
          0 0 0 0 0 0
          0 0 0 0 0 0
          0 0 0 0 0 0
          0 0 0 0 0 0
          0 0 0 0 0 0
          0 0 0 0 0 0
          -0 0 0 0 0 0
          0 0 0 0 0 0
          0 0 0 0 0 0
          -0 0 -0 0 0 0
          -0 0 -0 0 0 0
          0 0 0 0 0 0
          -0 0 0 0 0 0
          0 0 0 0 0 0
          0 0 0 0 0 0
          0 0 0 0 0 0
          0 0 0 0 0 0
          0 0 0 0 0 0
          0 0 0 0 0 0
          0 0 0 0 0 0
          0 0 0 0 0 0
          -0 0 0 0 0 0
          0 0 0 0 0 0
          0 0 0 0 0 0
          0 0 0 0 0 0
          0 0 -0 0 0 0
          0 0 0 0 0 0
          0 0 0 0 0 0
          0 0 0 0 0 0
          0 -0 0 0 0 0
          0 0 0 0 0 0
          0 0 0 0 0 0
          0 0 0 0 0 0
          0 0 0 0 0 0
          0 0 0 0 0 0
          0 0 0 0 0 0
          0 0 0 0 0 0
          0 0 0 0 0 0
          0 0 0 0 0 0
          0 0 0 0 0 0
          0 0 0 0 0 0
          0 0 0 0 0 0
          0 0 0 0 0 0
          0 0 0 0 0 0
          0 0 0 0 0 0
          0 0 0 0 0 0
          0 0 0 0 0 0
          0 0 0 0 0 0
          0 0 0 0 0 0
          0 0 0 0 0 0
          0 0 0 0 0 0
          0 0 0 0 0 0
          0 0 0 0 0 0
          0 0 0 0 0 0
          0 0 0 0 0 0
          0 0 0 0 0 0
          0 0 0 0 0 0
          0 0 0 0 0 0
          0 0 0 0 0 0
          0 0 0 0 0 0
          -0 0 0 0 0 0
          0 0 0 0 0 0
          0 0 0 0 0 0
          0 0 0 0 0 0
          0 0 0 0 0 0
          0 0 0 0 0 0
          0 0 0 0 0 0
          0 0 0 0 0 0
          0 0 0 0 0 0
          0 0 0 0 0 0
          0 0 0 0 0 0
          0 0 0 0 0 0
          0 0 0 0 0 0
          0 0 0 0 0 0
          0 0 0 0 0 0
          0 0 0 0 0 0
          0 0 0 0 0 0
          0 0 0 0 0 0
          0 0 0 0 0 0
          0 0 0 0 0 0
          0 0 0 0 0 0
          0 0 0 0 0 0
          0 0 0 0 0 0
          0 0 0 0 0 0
          0 0 0 0 0 0
          0 0 0 0 0 0
          0 0 0 0 0 0
          0 0 0 0 0 0
          0 0 0 0 0 0
          0 0 0 0 0 0
          0 0 0 0 0 0
          0 0 0 0 0 0
          0 0 0 0 0 0
          0 0 0 0 0 0
          0 0 0 0 0 0
          0 0 0 0 0 0
          0 0 0 0 0 0
          0 0 0 0 0 0
          0 0 0 0 0 -0
          0 0 0 0 0 0
          0 0 0 0 0 0
          0 0 0 0 0 0
          0 0 0 0 0 0
          0 0 0 0 0 0
          0 0 0 0 0 0
          -0 0 0 0 0 0
          0 0 0 0 0 0
          0 0 0 0 0 0
          0 0 0 0 0 0
          0 0 0 -0 0 0
          0 0 0 0 0 0
          0 0 0 0 0 0
          0 0 0 0 0 0
          0 0 0 0 0 0
          0 0 0 0 0 0
          0 0 0 0 0 0
          0 -0 0 0 0 0
          0 0 0 0 0 0
          0 0 0 0 0 0
          0 0 0 0 0 0
          -0 0 0 0 0 0
          0 0 0 0 0 0
          0 0 0 0 0 0
          0 0 0 0 0 0
          0 0 0 -0 0 0
          0 0 0 0 0 0
          0 0 0 0 0 0
          0 0 0 0 0 0
          0 0 0 0 0 0
          0 0 0 0 0 0
          0 0 0 0 0 0
          0 0 0 0 0 0
          0 0 0 0 0 0
          0 0 0 0 0 0
          0 0 0 0 0 0
          0 0 0 0 0 0
          0 0 0 0 0 0
          0 0 0 0 0 0
          0 0 0 0 0 0
          0 0 0 0 0 0
          0 0 0 0 0 0
          0 0 0 0 -0 0
          0 0 0 0 0 0
          0 0 0 0 0 0
          0 0 0 0 0 0
          0 0 0 0 0 0
          0 0 0 0 0 0
          0 0 0 0 0 0
          0 0 0 0 0 0
          0 0 0 0 0 0
          0 0 0 0 0 0
          0 0 0 0 0 0
          0 0 0 0 0 0
          -0 0 0 0 0 0
          0 0 0 0 0 0
          0 0 0 0 0 0
          0 0 0 0 0 0
          0 0 0 0 0 0
          0 0 0 0 0 0
          0 0 0 0 0 0
          0 0 0 0 0 0
          0 0 0 0 0 0
          0 0 0 0 0 0
          0 0 0 0 0 0
          0 0 0 0 0 0
          0 0 0 0 0 0
          0 0 0 0 0 0
          0 0 0 0 0 -0
          0 0 0 0 0 0
          0 0 0 0 0 0
          0 -0 0 0 0 0
          0 0 0 0 0 0
          0 0 0 0 0 0
          0 0 0 0 0 0
          0 0 0 0 0 0
          0 0 0 0 0 0
          0 0 0 0 0 -0
          0 0 0 0 0 0
          0 0 0 0 0 0
          0 0 0 0 0 0
          0 0 0 0 0 0
          0 0 0 0 0 0
          0 0 0 0 0 0
          0 0 0 0 0 0
          0 0 0 0 0 0
          0 0 0 0 0 0
          0 0 0 0 0 0
          0 0 0 0 0 0
          0 0 0 0 0 0
          0 0 0 0 0 0
          0 0 0 0 0 0
          0 0 0 0 0 0
          0 0 0 0 0 0
          0 0 0 0 0 0
          0 0 0 0 0 0
          0 0 0 0 0 0
          0 0 0 0 0 0
          0 0 0 0 0 0
          0 0 0 0 0 0
          0 0 0 0 0 0
          0 0 0 0 0 0
          0 0 0 0 0 0
          0 0 0 0 0 0
          0 0 0 0 0 -0
          0 0 0 0 0 0
          0 0 0 0 0 0
          0 0 0 0 0 0
          0 0 0 0 0 0
          0 0 0 0 0 0
          0 0 0 0 0 0
          0 0 0 0 0 0
          0 0 0 0 0 0
          0 -0 0 0 0 0
          0 0 0 0 0 0
          0 0 0 0 0 0
          0 -0 0 0 0 0
          0 0 0 0 0 0
          0 0 0 0 0 0
          0 0 0 0 0 0
          0 0 0 0 0 0
          0 0 0 0 0 0
          0 0 0 0 0 0
          0 0 0 0 0 0
          0 0 0 0 0 0
          0 0 0 0 0 0
          0 0 0 0 0 0
          0 0 0 0 0 0
          0 0 0 0 0 0
          0 0 0 0 0 0
          0 0 0 0 0 0
          0 0 0 0 0 0
          0 0 0 0 0 0
          0 0 0 0 0 0
          0 0 0 0 0 0
          0 0 0 0 0 0
          0 0 0 0 0 0
          0 0 0 0 0 0
          0 0 0 0 -0 0
          0 0 0 0 0 0
          0 0 0 0 0 0
          -0 0 0 0 0 0
          0 0 0 -0 0 0
          0 0 0 0 0 0
          0 0 0 0 -0 0
          0 0 0 0 0 0
          0 0 0 0 0 0
          0 0 0 0 0 0
          0 0 0 0 0 0
          0 0 0 0 0 0
          0 0 0 0 0 0
          0 0 0 0 0 0
          0 0 0 0 0 0
          0 0 0 0 0 0
          0 0 0 0 0 0
          0 -0 0 0 0 0
          0 0 0 0 0 0
          0 0 0 0 0 0
          0 0 0 0 0 0
          0 0 0 0 0 0
          0 0 0 0 0 0
          0 0 0 0 0 0
          0 0 0 0 0 0
          0 0 0 0 0 0
          0 0 0 0 0 0
          0 0 0 0 0 0
          0 0 0 0 0 0
          0 -0 0 0 0 0
          0 0 0 0 0 0
          0 0 0 0 0 0
          0 0 0 0 0 0
          0 0 0 0 0 0
          0 0 0 0 0 0
          0 0 0 0 0 0
          0 0 0 0 0 0
          0 0 0 -0 0 0
          0 0 0 0 0 0
          0 0 0 0 0 0
          0 0 0 0 0 0
          0 0 0 0 0 0
          0 0 0 0 0 0
          0 0 0 0 0 0
          0 0 0 0 0 0
          0 0 0 0 0 0
          0 0 0 0 0 0
          0 0 0 0 0 0
          0 0 0 0 0 0
          0 0 0 0 0 0
          0 0 0 0 0 0
          0 0 0 0 0 0
          0 0 0 0 0 0
          0 0 0 0 0 0
          0 0 0 0 0 0
          0 0 -0 0 0 0
          0 0 0 0 0 -0
          0 0 0 0 0 0
          0 0 0 0 0 0
          0 0 0 0 0 0
          0 0 0 0 0 0
          0 0 0 0 0 0
          0 0 0 0 0 0
          0 0 0 0 0 0
          0 0 0 0 0 0
          0 0 0 0 0 0
          0 0 0 0 0 0
          0 0 0 0 0 0
          0 0 0 0 0 0
          -0 0 0 0 0 0
          0 0 0 0 0 0
          0 0 0 0 0 0
          -0 0 0 0 0 0
          0 0 0 0 0 0
          0 0 0 0 0 0
          0 0 0 0 0 0
          0 0 0 0 0 0
          0 0 0 0 0 0
          0 0 0 0 0 0
          0 0 0 0 0 0
          0 0 0 0 0 0
          0 0 0 0 0 0
          0 0 0 0 0 0
          0 0 0 0 0 0
          0 0 0 0 -0 0
          0 0 0 -0 0 0
          0 0 0 0 0 0
          0 0 0 0 0 0
          0 0 0 0 0 0
          0 0 0 0 0 0
          0 0 0 0 0 0
          0 0 0 0 0 0
          0 0 0 0 0 0
          0 0 0 0 0 0
          0 0 0 0 0 0
          0 -0 0 0 0 0
          0 0 0 0 0 0
          0 0 0 0 0 0
          0 0 0 0 0 0
          0 0 0 0 0 0
          0 0 0 0 0 0
          0 0 0 0 0 0
          0 0 0 0 0 0
          0 0 0 0 0 0
          0 0 0 0 0 0
          -0 0 0 0 0 0
          0 0 0 0 0 0
          0 0 0 0 0 0
          0 0 0 0 0 0
          0 0 0 0 0 0
          0 0 0 0 0 0
          0 0 0 0 0 0
          0 0 0 0 0 0
          0 0 0 0 0 0
          0 0 0 0 0 0
          0 0 0 0 0 0
          0 0 0 0 0 0
          0 0 0 0 0 0
          0 0 0 0 0 0
          0 0 0 0 0 0
          0 0 0 0 0 0
          0 0 0 -0 0 0
          0 0 0 0 0 0
          0 0 0 0 0 0
          0 0 0 0 0 0
          0 0 0 0 0 0
          0 0 0 0 0 0
          0 0 0 0 0 0
          0 -0 0 0 0 0
          0 0 0 0 0 0
          0 0 0 0 0 0
          0 0 0 0 0 0
          0 0 0 0 0 0
          0 0 0 0 0 0
          0 0 0 0 0 0
          0 0 0 0 0 0
          0 0 0 0 0 0
          0 0 0 0 0 0
          0 0 0 0 0 0
          0 0 0 0 0 0
          0 0 0 0 0 0
          0 0 0 0 0 0
          0 0 0 0 0 0
          0 0 0 0 0 0
          0 0 0 0 0 0
          0 0 0 0 0 0
          0 0 0 0 0 0
          0 0 0 0 0 0
          0 0 0 -0 0 0
          0 0 0 0 0 0
          0 0 0 0 0 0
          0 0 0 0 0 0
          0 0 0 0 0 0
          0 0 0 0 0 0
          0 0 0 0 0 0
          0 0 0 0 0 0
          0 0 0 0 0 0
          0 0 0 0 0 0
          0 0 0 0 0 0
          0 0 0 0 0 0
          0 0 0 0 0 0
          0 0 0 0 0 0
          0 0 0 0 0 0
          0 0 0 0 0 0
          0 0 0 0 0 0
          -0 0 0 0 0 0
          0 0 0 0 0 0
          0 0 0 0 0 0
          -0 0 0 0 0 0
          0 0 0 0 0 0
          0 0 0 0 0 0
          0 0 0 0 0 0
          0 0 0 0 0 0
          0 0 0 0 0 0
          0 0 0 0 0 0
          0 0 0 -0 0 0
          0 0 0 0 0 0
          0 0 0 0 -0 0
          0 0 0 -0 0 0
          0 0 0 0 0 0
          0 0 0 0 0 0
          0 0 0 0 0 0
          0 -0 0 0 0 0
          0 0 0 0 0 0
          0 0 0 0 0 0
          0 0 0 0 0 0
          0 0 0 0 0 0
          0 0 0 0 0 0
          0 0 0 0 0 0
          0 0 0 0 0 0
          0 0 0 0 0 0
          0 0 0 0 0 0
          0 0 0 0 0 0
          0 0 0 0 0 0
          0 0 0 0 0 0
          0 0 0 0 0 0
          0 0 0 0 0 0
          0 0 0 0 0 0
          -0 0 0 0 0 0
          0 0 0 0 0 0
          0 0 0 0 0 0
          0 0 0 0 0 0
          0 0 0 0 0 0
          0 0 0 0 0 0
          0 0 0 0 0 0
          0 0 0 0 0 0
          0 0 0 0 0 0
          0 0 0 0 0 0
          0 0 0 0 0 0
          0 0 0 0 0 0
          0 0 0 0 0 0
          0 0 0 0 0 0
          0 0 0 0 0 0
          0 0 0 0 0 0
          0 0 0 0 0 0
          0 0 0 0 0 0
          -0 0 0 0 0 0
          0 0 0 0 0 0
          0 0 0 0 0 0
          0 0 0 0 0 0
          0 0 0 0 0 0
          0 0 0 0 0 -0
          -0 0 0 0 0 0
          0 0 0 0 0 0
          0 0 0 0 0 0
          0 0 0 0 0 0
          0 0 0 0 0 0
          0 0 0 0 0 0
          0 0 0 0 0 0
          0 0 0 0 0 0
          0 0 0 0 0 0
          0 0 0 0 0 0
          0 0 0 0 0 0
          0 0 0 0 0 0
          0 0 0 0 0 0
          0 0 0 0 0 0
          0 0 0 0 0 0
          0 0 0 0 0 0
          0 0 0 0 0 0
          0 0 0 0 0 0
          -0 0 0 0 0 0
          0 0 0 0 0 0
          0 0 0 0 0 0
          0 0 0 0 0 0
          0 0 0 0 0 0
          0 0 0 0 0 0
          0 0 0 0 0 0
          0 0 0 0 0 0
          0 0 0 0 0 0
          0 0 0 0 -0 0
          0 0 0 0 0 0
          0 0 0 0 0 0
          -0 0 0 0 0 0
          0 0 0 0 0 0
          0 -0 0 0 0 0
          0 0 0 0 0 0
          0 0 0 0 0 0
          0 -0 0 0 0 0
          0 0 0 0 0 0
          0 0 0 0 0 0
          0 0 0 0 0 0
          0 0 0 0 0 0
          0 0 -0 0 0 0
          0 0 0 0 0 0
          0 0 0 0 0 0
          0 0 0 0 0 0
          0 0 0 0 0 0
          0 0 0 0 0 0
          0 0 0 0 0 0
          0 0 0 0 0 0
          0 0 0 0 0 0
          0 0 0 0 0 0
          0 0 0 0 0 0
          0 0 0 0 0 0
          0 0 0 0 0 0
          0 0 0 0 0 0
          -0 0 0 0 0 0
          0 0 0 0 0 0
          0 0 0 0 0 0
          0 0 0 0 0 0
          0 0 0 -0 0 0
          0 0 0 0 0 0
          0 0 0 0 0 0
          0 0 0 0 0 0
          0 0 0 0 0 0
          0 0 0 0 0 0
          0 0 0 0 0 0
          0 0 0 0 0 0
          0 0 0 0 0 0
          0 0 0 0 0 0
          0 0 0 0 0 0
          0 0 0 0 0 0
          0 0 0 0 0 0
          0 0 0 0 0 0
          0 0 0 0 0 0
          0 0 0 0 0 0
          0 0 0 0 0 0
          0 0 0 0 0 0
          0 0 0 0 0 0
          0 0 0 0 0 0
          0 0 0 0 0 0
          0 0 0 -0 0 0
          0 0 0 0 0 0
          -0 0 0 0 0 0
          0 0 0 0 0 0
          0 0 0 0 0 0
          0 0 0 0 0 0
          0 0 0 0 0 0
          0 0 0 0 0 0
          0 0 0 0 0 0
          0 0 0 -0 0 0
          0 0 0 0 0 0
          0 0 0 0 0 0
          0 0 0 0 0 0
          0 0 0 0 0 0
          0 0 0 0 0 0
          0 0 0 0 0 0
          0 0 0 0 0 0
          0 0 0 0 0 0
          0 0 0 0 0 0
          0 0 0 0 0 0
          0 0 0 0 0 0
          0 0 0 0 0 0
          0 0 0 0 0 0
          0 0 0 0 0 0
          0 0 0 0 0 0
          0 0 0 0 0 0
          0 0 0 0 0 0
          0 0 0 0 0 0
          0 0 0 0 0 0
          0 0 0 0 -0 0
          0 0 0 0 0 0
          0 0 0 0 0 0
          0 0 0 0 0 0
          0 0 0 0 0 0
          0 0 0 0 0 0
          0 0 0 0 0 0
          0 0 0 0 0 0
          0 0 0 0 0 0
          0 0 0 0 0 0
          0 0 0 0 0 0
          0 0 0 0 0 0
          0 0 0 0 0 0
          0 0 0 0 0 0
          0 0 0 0 0 0
          0 0 0 0 0 0
          0 0 0 0 0 0
          0 0 0 0 0 0
          0 0 0 0 0 0
          0 0 0 0 0 0
          0 0 0 0 0 0
          0 0 0 0 0 0
          0 0 0 0 0 0
          0 0 0 0 0 0
          0 0 0 0 0 0
          0 0 0 0 0 0
          0 0 0 0 0 0
          0 0 0 0 0 0
          0 0 0 0 0 0
          0 0 0 0 0 0
          0 0 0 0 0 0
          0 0 0 0 0 0
          0 0 0 0 0 -0
          0 0 0 0 0 0
          0 0 0 0 0 0
          0 0 0 0 0 0
          0 0 0 0 0 0
          0 0 0 0 0 0
          0 0 0 0 0 0
          0 0 0 0 0 0
          0 0 0 0 0 0
          0 0 0 0 0 0
          0 0 0 0 0 0
          0 0 0 -0 0 0
          0 0 0 0 0 0
          0 0 0 0 0 0
          0 0 0 0 0 0
          0 0 0 0 0 -0
          0 0 0 0 0 0
          0 0 0 0 0 0
          0 0 0 0 0 0
          0 0 0 0 0 0
          0 0 0 0 0 0
          0 0 0 0 0 0
          0 0 0 0 0 0
          0 0 0 0 0 0
          0 0 0 0 0 0
          0 0 0 0 0 0
          0 0 0 0 0 0
          0 0 0 0 0 0
          0 0 0 0 0 0
          0 0 0 0 0 0
          0 0 0 0 0 0
          0 0 0 0 -0 0
          0 0 0 0 0 0
          0 0 0 0 0 0
          0 0 0 0 0 0
          0 0 0 0 0 0
          0 0 0 0 0 0
          0 0 0 0 0 0
          0 0 0 0 0 0
          0 0 0 0 0 0
          0 0 0 0 -0 0
          0 0 0 0 0 0
          0 0 0 0 0 0
          0 0 0 0 0 0
          0 0 0 0 0 0
          0 -0 0 0 0 0
          0 0 0 0 0 0
          0 0 0 0 0 0
          0 0 0 0 0 0
          0 0 0 0 0 0
          0 0 0 0 0 0
          0 0 0 0 0 0
          0 0 0 0 0 0
          0 0 0 0 0 0
          0 0 0 0 0 0
          0 0 0 0 0 0
          0 0 0 0 0 0
          0 0 0 0 0 0
          0 0 0 0 0 0
          0 0 0 0 0 0
          0 0 0 0 0 0
          0 0 0 0 0 0
          0 0 0 0 0 0
          0 0 0 0 0 0
          0 0 0 0 0 0
          0 0 0 0 0 0
          0 0 0 0 0 0
          0 0 0 0 0 0
          0 0 0 0 0 0
          0 0 0 0 0 0
          0 0 0 0 -0 0
          0 0 0 0 0 0
          0 0 0 0 0 0
          0 0 0 0 0 0
          0 0 0 0 0 0
          0 -0 0 0 0 0
          -0 0 0 0 0 0
          0 0 0 0 0 0
          0 -0 0 0 0 0
          0 0 0 0 0 0
          0 0 0 0 0 0
          0 0 0 0 0 0
          0 0 0 0 0 0
          0 0 0 0 0 0
          0 0 0 0 0 0
          0 0 0 0 0 0
          0 0 0 -0 0 0
          0 0 0 0 0 0
          -0 0 0 0 0 0
          0 0 0 0 0 0
          0 0 0 0 0 0
          0 0 0 0 0 0
          0 0 0 0 0 0
          0 0 0 0 0 0
          0 0 0 0 0 0
          0 0 0 0 0 0
          0 0 0 0 0 0
          0 0 0 0 0 0
          0 0 0 0 0 0
          0 -0 0 0 0 0
          0 0 0 0 0 0
          0 0 0 0 0 0
          0 0 0 0 0 0
          0 0 0 0 0 0
          0 0 0 0 0 0
          0 0 0 0 0 0
          0 0 0 0 0 0
          0 0 0 0 0 0
          0 0 0 0 0 0
          0 0 0 0 0 0
          0 0 0 0 0 0
          0 0 0 0 0 0
          0 0 0 0 0 0
          0 0 0 0 0 0
          0 0 0 0 0 0
          0 0 0 0 0 0
          0 0 0 0 0 0
          0 -0 0 0 0 0
          0 0 0 0 0 0
          0 0 0 0 0 0
          0 0 0 0 0 0
          0 0 0 0 0 0
          0 0 0 0 0 0
          0 0 0 0 0 0
          0 0 0 0 0 0
          0 0 0 0 0 0
          0 0 0 0 0 0
          0 0 0 0 0 0
          0 0 0 0 0 0
          0 0 0 0 0 -0
          0 0 0 0 0 0
          0 0 0 0 0 0
          0 0 0 0 0 0
          0 0 0 0 0 0
          0 0 -0 0 0 0
          0 0 0 0 0 0
          0 0 0 0 0 0
          0 0 0 0 0 0
          0 0 0 0 0 0
          0 0 0 0 0 0
          0 0 0 0 0 0
          0 0 0 0 0 0
          0 0 0 0 0 0
          0 0 -0 0 0 0
          0 0 0 0 0 0
          -0 0 0 0 0 0
          0 0 0 0 0 0
          0 0 0 0 0 0
          0 0 0 0 0 0
          0 0 -0 0 0 0
          0 0 0 0 0 0
          0 0 0 0 0 0
          0 0 0 0 0 0
          0 0 0 0 0 0
          0 0 0 0 0 0
          0 0 0 0 0 0
          0 0 0 0 0 0
          0 0 0 0 0 0
          0 0 0 0 0 0
          0 0 0 0 0 0
          0 0 0 0 0 0
          0 0 0 0 0 0
          0 0 0 0 0 0
          0 0 0 0 0 0
          0 0 0 -0 0 0
          0 0 0 0 0 0
          0 0 0 0 0 0
          0 0 0 0 0 0
          0 0 0 0 0 0
          0 0 0 0 0 0
          0 0 0 0 0 0
          0 0 0 0 0 0
          0 0 0 0 0 0
          0 0 0 0 0 0
          0 0 0 0 0 0
          0 0 0 0 0 0
          0 0 0 0 0 0
          0 0 0 0 0 0
          0 0 0 0 0 0
          0 0 0 0 0 0
          0 0 0 0 0 0
          0 0 0 0 0 0
          0 0 0 0 0 0
          0 0 0 0 0 0
          0 0 0 0 0 0
          0 0 0 0 0 0
          0 -0 0 0 0 0
          0 0 0 0 0 0
          0 0 0 0 0 0
          0 0 0 0 0 0
          0 0 0 0 0 0
          0 0 0 0 0 0
          0 0 0 0 0 0
          0 0 0 0 0 0
          0 0 0 0 0 0
          0 0 0 0 0 0
          0 0 0 0 0 0
          0 0 0 0 0 0
          0 -0 0 0 0 0
          0 0 0 0 0 0
          0 0 0 0 0 0
          0 0 0 0 0 0
          0 0 0 0 -0 0
          0 0 0 0 0 0
          0 0 0 0 0 0
          0 0 0 0 -0 0
          0 0 0 0 0 0
          0 0 0 0 0 0
          0 0 0 0 0 0
          0 0 0 0 0 0
          0 0 0 0 0 0
          0 0 0 0 0 0
          0 0 0 0 0 0
          0 -0 0 0 0 0
          0 0 0 0 0 0
          0 0 0 0 0 0
          0 0 0 0 0 0
          0 0 0 0 0 0
          0 0 0 0 0 0
          0 0 0 0 0 0
          0 0 0 0 0 0
          0 0 0 0 0 0
          0 0 0 0 0 0
          0 0 0 0 0 0
          0 0 0 0 0 0
          0 0 0 0 0 -0
          0 0 0 0 0 0
          0 0 0 0 0 0
          0 -0 0 0 0 0
          0 0 0 0 0 0
          0 0 0 0 0 0
          0 0 0 0 0 0
          0 0 0 0 0 0
          0 0 0 0 0 0
          0 0 0 0 0 0
          0 0 0 0 0 0
          0 0 0 -0 0 0
          0 0 0 0 0 0
          0 0 0 0 0 0
          0 0 0 0 0 0
          0 0 0 0 0 0
          0 0 0 0 0 0
          0 0 0 0 0 0
          0 0 0 0 0 0
          -0 0 0 0 0 0
          0 0 0 0 0 0
          0 0 0 0 0 0
          0 0 0 0 0 0
          0 0 0 0 0 0
          0 0 0 0 0 0
          0 0 0 0 0 0
          0 0 0 0 0 0
          0 0 0 0 0 0
          0 0 0 0 0 0
          0 0 0 0 0 0
          0 0 0 0 0 0
          0 0 0 0 0 0
          0 0 0 0 0 0
          0 0 0 0 0 0
          0 0 0 0 0 0
          0 0 0 0 0 0
          0 0 0 0 0 0
          0 0 0 0 0 0
          0 0 0 0 0 0
          0 0 0 0 0 0
          0 0 0 0 0 0
          0 0 0 0 0 0
          0 0 0 0 0 0
          0 0 0 0 0 0
          0 0 0 0 0 0
          0 0 0 0 0 0
          0 0 0 0 0 0
          0 0 0 0 0 0
          0 0 0 0 0 0
          0 0 0 0 0 0
          0 0 -0 0 0 0
          0 0 0 0 0 0
          0 0 0 0 0 0
          0 0 0 0 0 0
          0 0 0 0 0 0
          -0 0 0 0 0 0
          0 0 0 0 0 0
          0 0 0 0 0 0
          -0 0 0 0 0 0
          0 0 0 0 0 0
          0 0 0 0 0 0
          0 0 0 0 0 0
          0 0 0 -0 0 0
          0 0 0 0 0 0
          0 0 0 0 0 0
          0 0 0 0 0 0
          0 0 0 0 0 0
          0 0 0 0 0 0
          0 0 0 0 0 0
          0 0 0 0 0 0
          0 0 0 0 0 0
          0 0 0 0 0 0
          0 0 0 0 0 0
          0 0 0 0 0 0
          0 0 0 0 0 0
          0 0 0 0 0 0
          0 0 0 0 0 0
          0 0 0 0 0 0
          0 0 0 0 0 0
          0 0 0 0 0 0
          0 0 0 0 0 0
          0 0 0 0 0 0
          0 0 0 0 0 0
          0 0 0 0 0 0
          0 0 0 0 0 0
          0 0 0 0 0 0
          0 0 -0 0 0 0
          0 0 0 0 0 0
          -0 0 0 0 0 0
          0 0 0 0 0 0
          0 0 0 0 0 0
          0 0 0 0 0 0
          0 0 0 0 0 0
          0 0 0 0 0 0
          0 0 0 0 0 0
          0 0 0 -0 0 0
          0 0 0 0 0 0
          -0 0 0 0 0 0
          0 0 0 0 0 0
          0 0 0 0 0 0
          0 0 0 0 -0 0
          0 0 0 0 0 0
          0 0 0 0 0 0
          0 0 0 0 0 0
          0 0 0 0 0 0
          0 0 0 0 0 0
          0 0 0 0 0 0
          0 0 0 0 0 0
          0 0 0 0 0 0
          -0 0 0 0 0 0
          0 0 0 0 0 0
          0 0 0 0 0 0
          0 0 0 0 0 0
          0 0 0 0 0 0
          0 0 0 0 0 0
          0 0 0 0 0 0
          0 0 0 0 0 0
          0 0 0 0 0 0
          0 0 0 0 0 0
          0 0 0 0 0 0
          0 0 0 0 0 0
          0 0 0 0 0 0
          0 0 0 0 0 0
          0 0 0 0 0 0
          0 0 0 0 0 0
          0 0 0 0 0 0
          0 0 0 0 0 0
          0 0 0 0 0 0
          0 0 0 0 0 0
          0 0 0 0 0 0
          0 0 0 0 0 0
          0 0 0 0 0 0
          0 0 0 0 0 0
          0 0 0 0 0 0
          0 0 0 0 0 0
          0 0 0 0 0 0
          0 0 0 0 0 0
          0 0 0 0 0 0
          0 0 0 0 0 0
          0 0 0 0 0 0
          0 0 0 0 0 0
          0 0 0 0 0 0
          0 0 0 0 0 0
          0 0 0 0 0 0
          0 0 0 0 0 0
          0 0 0 0 0 0
          0 0 0 0 0 0
          0 0 0 0 0 0
          0 0 0 0 0 0
          0 0 0 0 0 0
          0 0 0 0 0 0
          0 0 0 0 0 0
          0 0 0 0 0 0
          0 0 0 0 0 0
          0 0 0 0 0 0
          0 0 0 0 0 0
          0 0 0 0 0 0
          0 0 0 0 0 0
          0 0 0 0 0 0
          0 0 0 0 0 0
          0 0 0 0 0 0
          0 0 0 0 0 0
          0 0 0 0 0 0
          0 0 0 0 0 0
          0 0 0 0 0 0
          0 0 0 0 0 0
          0 0 0 0 0 0
          0 0 0 0 0 0
          0 0 0 0 0 0
          0 0 0 0 0 0
          0 0 0 0 0 0
          0 0 0 0 0 0
          0 0 0 0 0 0
          0 0 0 -0 0 0
          0 0 0 0 0 0
          0 0 0 0 -0 0
          0 0 0 0 0 0
          0 0 0 0 0 0
          0 0 0 0 0 0
          0 0 0 0 0 0
          0 0 0 0 0 0
          0 0 0 0 -0 0
          0 0 0 0 0 0
          0 0 0 0 0 0
          0 0 0 0 0 0
          0 0 0 0 0 0
          0 0 0 0 0 0
          0 0 0 0 0 0
          0 0 0 0 0 0
          0 0 0 0 0 0
          0 0 0 0 0 0
          0 0 0 0 0 0
          0 0 0 0 0 0
          0 0 0 0 0 0
          0 0 0 0 0 0
          0 0 0 0 0 0
          0 0 0 0 0 0
          0 0 0 0 0 0
          0 0 0 0 0 0
          0 0 0 0 0 0
          0 0 0 0 0 0
          0 0 0 0 0 0
          0 0 0 0 0 0
          0 0 0 0 0 0
          0 0 0 0 0 0
          0 0 0 0 0 0
          0 0 0 0 0 0
          0 0 0 0 0 0
          0 0 0 0 0 0
          0 0 0 0 0 0
          0 0 0 0 0 0
          0 0 0 0 0 0
          0 0 0 0 0 0
          0 0 0 0 0 0
          0 0 0 0 0 0
          0 0 0 0 0 0
          0 0 0 0 0 0
          0 0 0 0 0 0
          0 0 0 0 0 0
          0 0 0 0 0 0
          0 0 0 0 0 0
          0 0 0 0 0 0
          0 0 0 0 0 0
          0 0 0 0 0 0
          0 0 0 0 0 0
          0 0 0 0 0 0
          0 0 0 0 0 0
          0 0 0 -0 0 0
          0 0 0 0 0 0
          0 0 0 0 0 0
          0 0 0 0 0 0
          0 0 0 0 0 0
          0 0 0 0 0 0
          0 0 0 0 0 0
          0 0 0 0 0 0
          0 0 0 0 0 0
          0 0 0 0 0 0
          0 0 0 0 0 0
          0 0 0 0 0 0
          0 0 0 0 0 0
          0 0 0 0 0 0
          0 0 0 0 0 0
          0 0 0 0 0 0
          0 0 0 0 0 0
          0 0 0 0 0 0
          0 0 0 0 0 0
          0 0 0 0 0 -0
          0 0 0 0 0 0
          0 0 0 0 0 0
          0 0 0 0 0 0
          0 0 0 0 0 0
          0 0 0 0 0 0
          0 -0 0 0 0 0
          0 0 0 0 -0 0
          0 0 0 0 0 0
          0 0 0 0 0 0
          0 0 0 0 0 0
          0 0 0 0 0 0
          0 0 0 0 0 0
          0 0 0 0 0 0
          0 0 0 0 0 0
          0 0 0 0 0 0
          0 0 0 0 0 0
          0 0 0 0 0 0
          0 0 0 0 0 0
          0 0 0 0 0 0
          0 0 0 0 0 0
          0 0 0 0 0 0
          0 0 0 0 0 0
          0 0 0 0 0 0
          0 0 0 0 0 0
          0 0 0 0 0 0
          0 0 0 0 0 0
          0 0 0 0 0 0
          0 0 0 0 0 0
          0 0 0 -0 0 0
          0 0 0 0 0 0
          0 0 0 0 0 0
          0 0 0 0 0 0
          0 0 0 0 0 0
          0 0 0 0 0 0
          0 0 0 0 0 0
          0 0 0 0 0 0
          0 0 0 0 0 0
          0 0 0 0 0 0
          0 0 0 0 0 0
          0 0 0 0 0 0
          0 0 0 0 0 0
          0 0 0 0 0 0
          0 0 0 0 0 0
          0 0 0 0 0 0
          0 0 0 0 0 0
          0 0 0 0 0 0
          0 0 0 -0 0 0
          0 0 0 0 0 0
          0 0 0 0 0 0
          0 0 0 0 0 0
          0 0 0 0 0 0
          0 0 0 0 0 0
          0 0 0 0 0 0
          0 0 0 0 0 0
          0 0 0 0 0 0
          0 0 0 0 0 0
          0 0 0 0 0 0
          0 0 0 0 0 0
          0 0 0 0 0 0
          0 0 0 0 0 0
          0 0 0 0 0 0
          0 0 0 0 0 0
          0 0 0 0 0 0
          0 0 0 0 0 0
          0 0 0 0 0 0
          0 0 0 0 0 0
          0 0 0 0 0 0
          0 0 0 0 0 0
          0 0 0 0 0 0
          0 0 0 0 0 0
          0 0 0 0 0 0
          0 0 0 0 0 0
          0 0 0 0 0 0
          0 0 0 0 0 0
          0 0 0 0 0 0
          0 0 0 0 0 0
          0 0 0 0 0 0
          0 0 0 0 0 -0
          0 0 0 0 0 0
          0 0 0 0 0 0
          0 0 0 0 0 0
          0 0 0 0 0 0
          0 0 0 0 0 0
          0 0 0 0 0 0
          0 0 0 0 0 0
          0 0 0 0 0 0
          0 0 0 0 0 -0
          0 0 0 0 0 0
          0 0 0 -0 0 0
          0 0 0 0 0 0
          0 0 0 0 0 0
          0 0 0 0 0 0
          0 0 0 0 0 0
          0 0 0 0 0 0
          0 0 0 0 0 0
          0 0 0 0 0 0
          0 0 0 0 0 0
          0 0 0 0 0 0
          0 -0 0 0 0 0
          0 0 0 0 0 0
          0 0 0 0 0 0
          0 0 0 0 0 0
          0 0 0 0 0 0
          0 0 0 0 0 0
          0 0 0 0 0 0
          0 0 0 0 0 0
          0 0 0 0 0 0
          0 0 0 0 0 0
          0 0 0 0 0 0
          0 0 0 0 0 0
          0 0 0 0 0 0
          0 0 0 0 0 0
          0 0 0 0 0 0
          0 -0 0 0 0 0
          0 0 0 0 0 0
          0 0 0 0 0 0
          0 0 0 0 0 0
          0 0 0 0 -0 0
          0 0 0 0 0 0
          0 0 0 0 0 0
          0 0 0 0 0 0
          0 0 0 0 0 0
          0 0 0 0 0 0
          0 0 0 0 0 0
          0 0 0 0 0 0
          0 0 0 0 0 0
          0 0 0 0 0 0
          0 0 0 0 0 0
          0 0 0 0 0 0
          0 0 0 0 0 0
          0 0 0 0 0 0
          0 0 0 0 0 0
          0 0 0 0 0 0
          0 0 0 0 0 0
          0 0 0 0 0 0
          0 0 0 0 0 0
          0 0 0 0 0 0
          0 0 0 0 0 0
          0 0 0 0 0 0
          0 0 0 0 0 0
          0 0 0 0 0 0
          0 0 0 0 0 0
          0 0 0 0 0 0
          0 0 0 0 0 0
          0 0 0 0 0 0
          0 0 0 0 0 0
          0 0 0 0 0 0
          0 0 0 0 0 0
          0 0 0 0 0 0
          0 0 0 0 0 0
          0 0 0 0 0 0
          0 0 -0 0 0 0
          0 0 0 0 0 0
          0 0 0 0 0 0
          0 0 0 0 0 0
          0 0 0 0 0 0
          0 0 0 0 0 0
          0 0 0 0 0 0
          0 0 0 0 0 0
          0 0 0 0 0 0
          0 0 0 0 0 0
          0 0 0 0 0 0
          0 0 0 0 0 0
          0 0 0 0 0 0
          0 0 0 0 0 0
          0 0 0 0 0 0
          0 0 0 0 0 0
          0 0 0 0 0 0
          0 0 0 0 0 0
          0 0 0 0 0 0
          0 0 0 0 0 0
          0 0 0 0 0 0
          0 0 0 0 0 0
          0 0 0 0 0 0
          0 0 0 0 0 0
          0 0 0 0 0 0
          0 0 0 0 0 -0
          0 0 0 0 0 0
          0 0 0 -0 0 0
          0 0 0 0 0 0
          0 0 0 0 0 0
          0 0 0 0 0 0
          0 0 0 0 0 0
          0 0 0 0 0 0
          0 0 0 0 0 0
          0 0 0 0 0 0
          0 0 0 0 0 0
          0 0 0 0 0 0
          0 0 0 0 0 0
          0 0 0 0 0 0
          0 0 0 0 0 0
          0 0 0 0 0 0
          0 0 0 0 0 0
          0 0 0 0 0 0
          0 0 0 0 0 0
          0 0 0 0 0 0
          0 0 0 0 0 0
          0 -0 0 0 0 0
          0 0 0 0 0 0
          0 0 0 0 0 0
          0 0 0 0 0 0
          0 0 0 0 0 0
          0 0 0 0 0 0
          0 0 0 0 0 0
          0 0 0 0 0 0
          0 0 0 0 0 0
          0 0 0 0 0 0
          0 0 0 0 0 0
          0 0 0 0 0 0
          0 0 0 0 0 0
          0 0 0 0 0 0
          0 0 0 0 0 0
          0 0 0 0 0 0
          0 0 0 0 0 0
          0 0 0 0 0 0
          0 0 0 0 0 0
          0 0 0 0 0 0
          0 0 0 0 0 0
          0 0 0 0 0 0
          0 0 0 0 0 0
          0 0 0 0 0 0
          0 0 0 0 0 0
          0 0 0 0 0 0
          0 0 0 0 0 0
          0 0 0 0 0 0
          0 0 0 0 0 0
          0 0 0 0 0 0
          0 0 0 0 0 0
          0 0 0 0 0 0
          0 0 0 0 0 0
          0 0 0 0 0 0
          0 0 0 0 0 0
          0 0 0 0 0 0
          0 0 0 0 0 0
          0 0 0 0 0 0
          0 0 0 0 0 0
          0 0 0 0 0 0
          0 0 0 0 0 0
          0 0 0 0 0 0
          0 -0 0 0 0 0
          0 0 0 0 0 0
          0 0 0 0 0 0
          0 0 0 0 0 0
          0 0 0 0 0 0
          0 0 0 0 0 0
          0 0 0 0 0 0
          0 0 0 0 0 0
          0 0 0 0 0 0
          0 0 0 0 0 -0
          0 0 0 0 0 0
          0 0 0 0 0 0
          0 0 0 0 0 0
          0 0 0 0 0 0
          0 0 0 0 0 0
          0 0 0 0 0 0
          0 0 0 0 0 0
          0 0 0 0 0 0
          0 0 0 0 0 0
          0 0 0 0 0 0
          0 0 0 0 0 0
          0 0 0 0 0 0
          0 0 0 0 0 0
          0 0 0 0 0 0
          0 0 0 0 0 0
          0 0 0 0 0 0
          0 0 0 0 0 0
          0 -0 0 0 0 0
          0 0 0 0 0 0
          0 0 0 0 0 0
          0 0 0 0 0 0
          0 0 0 0 0 0
          0 0 0 0 0 0
          0 0 0 0 0 0
          0 0 0 0 0 0
          0 0 0 0 0 0
          0 0 0 0 0 0
          0 0 0 0 0 0
          0 0 0 0 0 0
          0 0 0 0 0 0
          0 0 0 0 0 0
          0 0 0 0 0 0
          0 0 0 0 0 0
          0 0 0 0 0 0
          0 0 0 0 0 0
          0 0 0 0 0 0
          -0 0 0 0 0 0
          0 0 0 0 0 0
          0 0 0 0 0 0
          0 0 0 0 0 0
          0 0 -0 0 0 0
          0 0 0 0 0 0
          0 0 0 0 0 0
          0 0 0 0 0 0
          0 0 0 0 0 0
          0 0 0 0 0 0
          0 0 0 0 0 0
          0 0 0 0 0 0
          -0 0 0 0 0 0
          0 0 0 -0 0 0
          0 0 0 0 0 0
          0 0 0 0 0 0
          0 0 0 0 0 0
          0 0 0 0 0 0
          0 0 0 0 0 0
          0 0 0 0 0 0
          0 0 0 0 0 0
          0 0 0 0 0 0
          0 0 0 0 0 0
          0 0 0 0 0 0
          0 0 0 0 0 0
          0 0 0 0 0 0
          0 0 0 0 0 0
          -0 0 0 0 0 0
          0 0 0 0 0 0
          0 0 0 0 0 -0
          0 0 0 0 0 0
          0 0 0 0 0 0
          0 0 0 0 0 0
          0 0 0 0 0 0
          0 0 0 0 0 0
          0 0 0 0 0 0
          0 0 0 0 0 0
          0 0 0 0 0 0
          0 0 0 0 0 0
          0 0 0 0 0 0
          0 0 0 0 0 0
          0 0 0 0 0 0
          0 0 0 0 0 0
          0 0 0 0 0 0
          0 0 0 0 0 0
          0 0 0 0 0 0
          0 0 0 0 0 0
          0 0 0 0 0 0
          0 0 0 0 0 0
          0 0 0 0 0 0
          0 0 0 0 0 0
          0 0 0 0 0 0
          0 0 0 0 0 0
          0 0 0 0 0 0
          0 0 0 0 0 0
          0 0 -0 0 0 0
          0 0 0 0 0 0
          -0 0 0 0 0 0
          0 0 0 0 0 0
          0 0 0 0 0 0
          0 0 0 0 0 0
          0 0 0 0 0 0
          0 0 0 0 0 0
          0 0 0 0 0 0
          0 0 0 0 0 0
          0 0 0 0 0 0
          0 0 0 0 0 0
          0 0 0 0 0 0
          0 0 0 0 0 0
          0 0 0 0 0 0
          0 0 0 0 0 0
          0 0 0 0 0 0
          0 0 0 0 0 0
          0 0 0 0 0 0
          0 0 0 0 0 0
          0 0 0 0 0 0
          0 0 0 0 0 0
          0 0 0 0 0 0
          0 0 0 0 0 0
          0 0 0 0 0 0
          0 0 0 0 0 -0
          0 0 0 0 0 0
          0 0 0 0 0 0
          0 0 0 0 0 0
          0 0 0 0 0 0
          0 0 0 0 0 0
          0 0 0 0 0 0
          0 0 0 0 0 0
          0 0 0 0 0 0
          0 0 0 0 0 0
          0 0 0 0 0 0
          0 0 0 0 0 0
          0 0 0 0 0 0
          -0 0 0 0 0 0
          0 0 0 0 0 0
          0 -0 0 0 0 0
          0 0 0 0 0 0
          0 0 0 0 0 0
          0 0 0 0 0 0
          0 0 0 0 -0 0
          0 0 0 0 0 0
          0 0 0 0 0 0
          0 0 0 0 0 0
          0 0 0 0 0 0
          0 0 0 0 0 0
          -0 0 0 0 0 0
          0 0 0 0 0 0
          0 0 0 0 0 0
          0 0 0 0 0 0
          0 0 0 0 0 0
          0 0 0 0 0 0
          0 0 0 0 0 0
          0 0 0 0 0 0
          0 0 0 0 0 0
          0 0 0 0 0 0
          0 0 0 0 0 0
          0 0 0 0 0 0
          -0 0 0 0 0 0
          0 0 0 0 0 0
          0 0 0 0 0 -0
          0 0 0 0 0 0
          0 0 0 0 0 0
          0 0 0 0 0 -0
          0 0 0 0 0 0
          0 0 0 0 0 0
          0 0 0 0 0 0
          0 0 0 0 0 0
          0 0 0 0 0 0
          0 0 0 0 0 0
          0 0 0 0 0 0
          0 0 0 0 0 0
          0 0 0 0 0 0
          0 0 0 0 0 0
          0 0 0 0 0 0
          0 0 0 0 0 0
          0 0 0 0 0 0
          0 0 0 0 0 0
          0 0 0 0 0 0
          0 0 0 0 0 0
          0 0 0 0 0 0
          0 0 0 0 0 0
          0 0 0 0 0 0
          0 0 0 0 0 0
          0 -0 0 0 0 0
          0 0 0 0 0 0
          0 0 0 0 0 0
          0 -0 0 0 0 0
          0 0 0 0 0 0
          0 0 0 0 0 0
          0 0 0 0 0 0
          0 0 0 0 0 0
          0 0 0 0 0 0
          0 0 0 0 0 -0
          0 0 0 0 0 0
          0 0 0 0 0 0
          0 0 0 0 0 0
          0 0 0 0 0 0
          0 0 0 0 0 0
          0 0 0 0 0 0
          0 0 0 0 0 0
          0 0 0 0 0 0
          0 0 0 0 0 -0
          0 0 0 0 0 0
          0 0 0 0 0 0
          0 0 0 0 0 0
          0 0 0 0 0 0
          0 0 0 0 0 0
          0 0 0 0 0 0
          0 0 0 0 0 0
          0 0 0 0 0 0
          0 0 0 0 0 0
          0 0 0 0 0 0
          0 0 0 0 0 0
          0 0 0 0 0 0
          0 0 0 0 0 0
          0 0 0 0 0 0
          0 0 0 0 0 0
          0 0 0 0 0 0
          0 0 0 0 0 0
          0 0 0 0 0 0
          0 0 0 0 0 0
          0 0 0 0 0 0
          0 0 0 0 0 0
          0 0 0 0 0 0
          0 0 0 0 0 0
          0 0 0 0 0 0
          0 0 0 0 0 0
          0 0 0 0 0 0
          0 0 0 0 0 0
          0 0 0 0 0 0
          0 0 0 -0 0 0
          0 0 0 0 0 0
          0 0 0 0 0 0
          0 0 0 0 0 0
          0 0 0 0 0 0
          0 0 0 0 0 0
          0 0 0 0 0 0
          0 0 0 0 0 0
          0 0 0 0 0 0
          0 0 0 0 0 0
          0 0 0 0 0 0
          0 0 0 0 0 0
          0 0 0 0 0 0
          0 0 0 0 0 0
          0 0 0 0 0 0
          0 0 0 0 0 0
          0 0 0 0 0 0
          0 0 0 0 0 0
          0 0 0 0 0 0
          0 0 0 0 0 0
          0 0 0 0 0 0
          0 0 0 0 0 0
          0 0 0 0 0 0
          0 0 0 0 0 0
          0 0 0 0 0 0
          0 0 0 0 0 0
          0 0 0 0 0 0
          0 0 0 0 0 0
          0 0 0 0 0 0
          0 0 0 0 0 0
          0 0 0 0 0 0
          0 0 0 0 0 0
          0 0 0 0 0 0
          0 0 0 0 0 0
          0 0 0 0 0 0
          0 0 0 0 0 0
          0 0 0 0 0 0
          0 0 0 0 0 0
          0 0 0 0 0 0
          0 0 0 0 0 0
          0 0 0 0 0 0
          0 0 0 0 0 0
          0 0 0 0 0 0
          0 0 0 0 0 0
          0 0 0 0 0 0
          0 0 0 -0 0 0
          0 0 0 0 0 0
          -0 0 0 0 0 0
          0 0 0 0 0 0
          0 0 0 0 0 0
          -0 0 0 0 0 0
          0 0 0 0 0 0
          0 0 0 0 0 0
          0 0 0 0 0 0
          0 0 0 0 0 0
          0 0 0 0 0 0
          0 0 0 0 0 0
          0 0 0 0 0 0
          0 0 0 0 0 0
          0 0 0 0 0 0
          0 0 0 0 0 0
          0 0 0 0 0 0
          0 0 0 0 0 0
          0 0 0 0 0 0
          0 0 0 0 0 0
          0 0 0 0 0 0
          0 0 0 0 0 0
          0 0 0 0 0 0
          0 0 0 0 0 0
          0 0 0 0 0 0
          0 0 0 0 0 0
          0 0 0 0 0 0
          0 0 0 0 0 0
          0 0 0 0 0 0
          0 0 0 0 0 0
          0 0 0 0 0 0
          0 0 0 0 0 0
          0 0 0 0 0 0
          0 0 0 0 0 0
          0 0 0 0 0 0
          0 0 0 0 0 0
          0 0 0 0 0 0
          0 0 0 0 0 0
          0 0 0 0 0 0
          0 0 0 0 0 0
          0 0 0 0 0 0
          0 0 0 0 0 0
          0 0 0 -0 0 0
          0 0 0 0 0 0
          0 0 0 0 0 0
          0 0 0 0 0 0
          0 0 0 0 0 0
          0 0 0 0 0 0
          0 0 0 0 0 0
          0 0 0 0 0 0
          0 0 0 0 0 0
          0 0 0 0 0 0
          0 0 0 0 0 0
          0 0 0 0 0 0
          0 0 0 0 0 0
          0 0 0 0 0 0
          0 0 0 0 0 0
          0 0 0 0 0 0
          0 0 0 0 0 0
          0 0 0 0 0 0
          0 0 0 0 0 0
          0 0 0 0 0 0
          0 0 0 0 0 0
          0 0 0 0 0 0
          0 0 0 0 0 0
          0 0 0 0 0 0
          0 0 0 0 0 0
          0 0 0 0 0 0
          0 0 0 0 0 0
          0 0 0 0 0 0
          0 0 0 0 0 0
          0 0 0 0 0 0
          0 0 0 -0 0 0
          0 0 0 0 0 0
          0 0 0 0 0 0
          0 0 0 0 0 0
          0 0 0 0 0 0
          0 0 0 0 0 0
          0 0 0 0 0 0
          0 0 0 0 0 0
          0 0 0 0 0 0
          0 0 0 0 0 0
          0 0 0 0 0 0
          0 0 0 0 0 0
          0 0 0 0 0 0
          0 0 0 0 0 0
          0 0 0 0 0 0
          0 0 0 0 0 0
          0 0 0 0 0 0
          0 0 0 0 -0 -0
          0 -0 -0 0 0 0
          0 0 0 0 0 0
          0 0 0 0 0 0
          0 0 0 0 0 0
          0 0 0 0 0 0
          -0 0 0 0 0 0
          0 0 0 0 0 0
          0 0 0 0 0 0
          0 0 0 0 0 0
          0 0 0 0 0 0
          0 0 0 0 0 0
          0 0 0 0 0 0
          0 0 0 0 0 0
          0 0 0 0 0 0
          0 0 0 0 0 0
          0 0 0 0 0 0
          0 0 0 0 0 0
          0 0 0 0 0 0
          0 0 0 0 0 0
          0 0 0 0 0 0
          0 0 0 0 0 0
          0 0 0 0 0 0
          0 0 0 0 0 -0
          0 0 0 0 0 0
          0 0 0 0 0 0
          0 0 0 0 0 0
          -0 0 0 0 0 0
          0 0 0 0 0 0
          0 0 0 0 0 0
          0 0 0 0 0 0
          0 0 0 0 0 0
          0 0 0 0 0 0
          0 0 0 0 0 0
          0 0 0 -0 0 0
          0 0 0 0 0 0
          0 0 0 0 0 0
          0 0 0 0 0 0
          0 0 0 0 0 0
          0 0 0 0 0 0
          0 0 0 0 0 0
          0 0 0 0 0 0
          0 0 0 0 0 0
          0 0 0 0 0 0
          0 0 0 0 0 0
          0 0 0 0 0 0
          0 0 0 0 0 0
          0 0 0 0 0 0
          0 0 0 0 0 0
          0 0 0 0 0 0
          0 0 0 0 0 0
          0 0 0 0 0 0
          0 0 0 0 0 0
          0 0 0 0 0 0
          0 0 0 0 0 0
          0 0 0 -0 0 0
          0 0 0 0 0 0
          0 0 0 0 0 0
          0 0 0 0 0 0
          0 0 0 0 0 0
          0 0 0 0 0 0
          0 0 0 0 0 0
          0 0 0 0 0 -0
          0 0 0 0 0 0
          0 0 0 -0 0 0
          0 0 0 0 0 0
          0 0 0 0 0 0
          0 0 0 0 0 0
          0 0 0 0 0 0
          0 0 0 0 0 0
          0 0 0 0 0 0
          0 0 0 0 0 0
          0 0 0 0 0 0
          0 0 0 0 0 0
          0 0 0 0 0 0
          0 0 0 0 0 0
          0 0 0 0 0 0
          0 0 0 0 0 0
          0 0 0 0 0 0
          0 0 0 0 0 0
          0 -0 0 0 0 0
          0 0 0 0 -0 0
          0 0 0 0 0 0
          0 0 0 0 0 0
          -0 0 0 0 0 0
          0 0 0 0 0 0
          0 0 0 0 0 0
          0 0 0 0 0 0
          0 0 0 0 0 0
          0 0 0 0 0 0
          0 0 0 0 0 0
          0 0 0 0 0 0
          0 0 0 0 0 0
          0 0 0 0 0 0
          0 0 0 0 0 0
          0 0 0 0 0 0
          0 0 0 0 0 0
          0 0 0 0 0 0
          0 0 0 0 0 -0
          0 0 0 0 0 0
          0 0 0 0 0 0
          0 0 0 0 0 0
          0 0 0 0 0 0
          0 0 0 0 0 0
          0 0 0 0 0 0
          0 0 0 0 -0 0
          0 0 0 0 0 0
          0 0 0 0 0 0
          0 0 0 0 0 0
          0 0 0 0 0 0
          0 0 0 0 0 0
          0 0 0 0 0 0
          0 0 0 0 0 0
          0 0 0 0 0 0
          0 0 0 0 -0 0
          0 0 0 0 0 0
          0 0 0 0 0 0
          0 0 0 0 0 0
          0 0 0 0 0 0
          0 0 0 0 0 0
          0 0 0 0 0 0
          0 0 0 0 0 0
          0 0 0 0 0 0
          0 0 0 0 0 0
          0 0 0 0 0 0
          0 0 0 0 0 0
          0 0 0 0 0 0
          0 0 0 0 0 0
          0 0 0 0 0 0
          0 0 0 0 0 0
          0 0 0 0 0 0
          0 0 0 0 0 0
          0 0 0 0 0 0
          0 0 0 0 0 0
          0 -0 0 0 0 0
          0 0 0 0 0 0
          0 0 0 0 0 0
          0 0 0 0 0 0
          0 0 0 0 0 0
          0 0 0 0 0 0
          0 0 0 0 0 0
          0 0 0 0 0 0
          0 0 0 0 0 0
          0 0 0 0 0 0
          0 0 0 0 0 0
          0 0 0 0 0 0
          0 0 0 0 0 0
          0 0 0 0 0 0
          0 0 0 0 0 0
          0 0 0 0 0 0
          0 0 0 0 0 0
          0 0 0 0 0 0
          0 0 0 0 0 0
          0 0 0 0 0 0
          0 0 0 0 0 0
          0 0 0 0 0 0
          0 0 0 0 0 0
          0 0 0 0 0 0
          0 0 0 0 0 0
          0 0 0 0 -0 0
          0 0 0 0 0 0
          0 0 0 0 0 0
          0 0 0 0 0 0
          0 0 0 0 0 0
          0 0 0 0 0 0
          0 0 0 0 0 0
          0 0 0 0 0 0
          0 0 0 0 0 0
          0 0 0 0 0 0
          0 0 0 0 0 0
          0 0 0 0 0 0
          0 0 0 0 0 0
          0 0 0 0 0 0
          0 0 0 0 0 0
          0 0 0 0 0 0
          0 0 0 0 0 0
          0 0 0 0 0 0
          -0 0 0 0 0 0
          0 0 0 0 0 0
          0 0 0 0 0 0
          0 0 0 0 0 0
          0 0 0 0 0 0
          0 0 0 0 0 0
          0 0 0 0 0 0
          0 0 -0 0 0 0
          0 0 0 0 0 0
          -0 0 0 0 0 0
          0 0 0 0 0 0
          0 -0 0 0 0 0
          0 0 0 0 0 0
          0 0 0 0 0 0
          0 0 0 0 0 0
          0 0 0 0 0 0
          0 0 0 0 0 0
          0 0 0 0 0 0
          0 0 0 0 0 0
          0 0 0 -0 0 0
          0 0 0 0 0 0
          0 0 0 0 0 0
          0 0 0 0 0 0
          0 0 0 0 0 0
          0 0 0 0 0 0
          0 0 0 0 0 0
          0 0 0 0 0 0
          0 0 0 0 0 0
          0 0 0 0 0 0
          0 0 0 0 0 0
          0 0 0 0 0 0
          0 0 0 0 0 0
          0 0 0 0 0 0
          0 0 0 0 0 0
          0 0 0 0 0 0
          0 0 0 0 0 0
          0 0 0 0 0 0
          0 0 0 0 0 0
          0 0 0 0 0 0
          0 0 0 0 0 0
          0 0 0 0 0 0
          0 0 0 0 0 0
          0 0 0 0 0 0
          0 0 0 0 0 0
          0 0 0 0 0 0
          0 0 0 0 0 0
          0 0 0 0 0 0
          0 0 0 0 0 0
          0 0 0 0 0 0
          0 0 0 0 0 0
          0 0 0 0 0 0
          0 0 0 0 -0 0
          0 0 0 0 0 0
          0 0 0 0 0 0
          -0 0 0 0 0 0
          0 0 0 0 0 0
          0 0 0 0 0 0
          0 0 0 0 0 0
          0 0 0 0 0 0
          0 -0 0 0 0 0
          0 0 0 0 0 0
          0 0 0 0 0 0
          0 0 0 0 0 0
          0 0 0 0 -0 0
          0 0 0 0 0 0
          0 0 0 0 0 0
          0 0 0 0 0 0
          0 0 0 0 0 0
          0 -0 0 0 0 0
          0 0 0 0 0 0
          0 0 0 0 0 0
          0 0 0 0 0 0
          0 0 0 0 0 0
          0 0 0 0 0 0
          0 0 0 0 0 0
          0 0 0 0 0 0
          0 0 0 -0 0 0
          0 0 0 0 0 0
          0 0 0 0 0 0
          0 0 0 0 0 0
          0 0 0 0 0 0
          -0 0 0 0 0 0
          0 0 0 0 0 0
          0 0 0 0 0 0
          0 0 0 0 0 0
          0 0 0 0 0 0
          0 0 0 0 0 0
          0 0 0 0 0 0
          0 0 0 -0 0 0
          0 0 0 0 0 0
          0 0 0 0 0 0
          0 0 0 0 0 0
          0 0 0 0 0 0
          0 0 0 0 0 0
          0 0 0 0 0 0
          0 0 0 0 0 0
          0 0 0 0 0 0
          0 0 0 0 0 0
          0 0 0 0 0 0
          0 0 0 0 0 0
          0 0 0 0 0 0
          0 0 0 0 0 0
          0 0 0 0 0 0
          0 0 -0 0 0 0
          0 0 0 0 0 0
          0 0 0 0 0 0
          0 0 0 0 0 0
          0 0 0 0 0 0
          0 0 0 0 0 0
          0 0 0 0 0 0
          0 0 0 0 0 0
          0 0 0 0 0 0
          0 0 0 0 0 0
          0 0 0 0 0 0
          0 0 0 0 0 0
          0 0 0 0 0 0
          0 0 0 0 0 0
          0 0 0 0 0 0
          0 0 0 0 0 0
          0 0 0 0 0 0
          0 0 0 0 0 0
          0 0 0 0 0 0
          0 0 0 0 0 0
          0 0 0 0 0 0
          0 0 0 0 0 0
          0 0 0 0 0 0
          0 0 0 0 0 0
          0 0 0 0 0 0
          0 0 0 0 0 0
          0 0 0 0 0 0
          0 0 0 0 0 0
          0 0 0 0 0 0
          0 0 0 0 0 0
          0 0 0 0 0 0
          0 0 0 0 0 0
          0 0 0 0 0 0
          0 0 0 0 0 0
          0 0 0 0 0 0
          0 0 0 0 0 0
          0 0 0 0 0 0
          0 0 0 0 0 0
          0 0 0 0 0 0
          0 0 0 0 0 0
          0 0 0 0 0 0
          0 0 0 0 0 0
          0 0 0 0 0 0
          0 0 0 0 0 0
          0 0 0 0 0 0
          0 0 0 0 0 0
          0 -0 0 0 0 0
          0 0 0 0 0 0
          0 0 0 0 0 0
          0 0 0 0 0 0
          0 0 0 0 -0 0
          0 0 0 0 0 0
          0 0 0 0 0 0
          0 0 0 0 0 0
          0 0 0 0 0 0
          0 0 0 0 0 0
          0 0 0 0 0 0
          0 0 0 0 0 0
          0 0 0 0 0 0
          0 0 0 0 0 0
          0 0 -0 -0 0 0
          0 0 0 0 0 0
          0 0 0 0 0 0
          0 0 0 0 0 0
          0 0 0 0 0 0
          0 0 0 0 0 0
          0 0 0 0 0 0
          0 0 0 0 0 0
          0 0 0 0 0 0
          0 0 0 -0 0 0
          0 0 0 0 0 0
          0 0 0 0 0 0
          0 0 0 0 0 0
          0 0 0 0 0 0
          0 0 0 0 0 0
          0 0 0 0 0 0
          0 0 0 0 0 0
          0 0 0 0 -0 0
          0 0 0 0 0 0
          0 0 0 0 0 0
          0 0 0 0 0 0
          0 0 0 0 0 0
          0 0 0 0 0 0
          0 0 0 0 0 0
          0 0 0 -0 0 0
          0 0 0 0 0 0
          0 0 0 0 0 0
          0 0 0 0 0 0
          0 0 0 0 0 0
          0 0 0 0 0 0
          0 0 -0 0 0 0
          0 0 0 0 0 0
          0 0 0 0 0 0
          0 0 0 0 0 0
          0 0 0 0 0 0
          0 0 0 0 0 0
          0 0 0 0 0 0
          0 0 0 0 0 0
          0 0 0 0 0 0
          0 0 0 0 0 0
          0 0 0 0 0 0
          0 0 0 0 0 0
          0 0 0 0 0 0
          0 0 0 0 0 0
          0 0 0 0 0 0
          0 0 0 0 0 0
          0 0 0 0 0 0
          0 0 0 0 -0 0
          0 0 0 0 0 0
          0 0 0 0 0 0
          0 0 0 0 0 0
          0 0 0 0 0 0
          0 0 0 0 0 0
          0 0 0 0 0 0
          0 0 0 0 0 0
          0 0 0 0 0 0
          0 0 0 0 0 0
          0 0 0 0 0 0
          0 0 0 0 0 0
          0 0 0 0 0 0
          0 0 0 0 0 0
          0 0 0 0 0 0
          0 0 0 0 0 0
          0 0 -0 0 0 0
          0 0 0 0 0 0
          0 0 0 0 0 0
          0 0 0 0 0 0
          0 0 0 0 0 0
          0 0 0 0 0 0
          0 0 0 0 0 0
          0 0 0 0 0 0
          0 0 0 0 0 0
          0 0 0 0 0 0
          0 0 0 0 0 -0
          0 0 0 0 0 0
          0 0 0 0 0 0
          0 0 0 0 0 0
          0 0 0 0 0 0
          0 0 0 0 0 0
          0 0 0 0 0 0
          0 0 0 0 0 0
          0 0 0 -0 0 0
          0 0 0 0 0 0
          0 0 0 0 0 0
          0 0 -0 0 0 0
          0 0 0 0 0 0
          -0 0 0 0 0 0
          0 0 0 0 0 0
          0 0 0 0 0 0
          0 0 0 0 0 0
          0 0 0 0 0 0
          0 0 0 0 0 0
          0 0 0 0 0 0
          0 0 0 0 0 0
          0 0 0 0 0 0
          0 0 0 0 0 0
          0 0 0 0 0 0
          0 0 0 0 0 0
          0 0 0 0 0 0
          0 0 0 0 0 0
          0 0 0 0 0 0
          0 0 0 0 0 0
          0 0 0 0 0 0
          0 0 0 0 0 0
          0 0 0 0 0 0
          0 0 0 0 0 0
          0 0 0 0 0 0
          0 0 0 0 0 0
          0 0 0 0 0 0
          0 0 0 0 0 0
          0 0 0 0 0 0
          0 0 0 0 0 0
          0 0 0 0 0 0
          0 0 0 0 0 0
          0 0 0 0 0 0
          0 -0 0 0 0 0
          0 0 0 0 0 0
          0 0 0 0 0 0
          0 0 0 0 0 -0
          0 0 0 0 0 0
          0 0 0 0 0 0
          0 0 0 0 0 0
          0 0 0 0 0 0
          0 0 0 0 0 0
          0 0 0 0 0 0
          -0 0 0 0 0 0
          0 0 0 0 0 0
          0 -0 0 0 0 0
          0 0 0 0 0 0
          0 0 -0 0 0 0
          0 0 0 0 0 0
          0 0 0 0 0 0
          0 0 0 0 0 0
          0 0 0 0 0 0
          0 0 0 0 0 0
          0 0 0 0 0 0
          0 0 0 0 0 0
          0 0 0 0 0 0
          0 0 0 0 0 0
          0 0 0 0 0 -0
          0 0 0 0 0 0
          0 0 0 0 0 0
          0 0 0 0 0 0
          0 0 0 0 0 0
          0 0 0 -0 0 0
          0 0 0 0 0 0
          0 0 0 0 0 0
          0 0 0 0 0 0
          0 0 0 0 0 0
          0 0 0 0 -0 0
          0 0 0 0 0 0
          0 0 0 0 0 0
          0 0 0 0 0 0
          0 0 0 0 0 0
          0 0 0 0 0 -0
          0 0 0 0 0 0
          0 0 0 0 0 0
          0 0 0 0 0 0
          0 0 0 0 0 0
          0 0 0 0 0 0
          0 0 0 0 0 0
          0 0 0 0 0 0
          0 0 0 0 0 0
          0 0 0 0 0 0
          0 0 0 0 0 0
          0 0 0 0 0 0
          0 0 0 0 0 0
          0 0 0 0 -0 0
          0 0 0 0 0 0
          0 0 0 0 0 0
          0 0 0 0 0 0
          0 0 0 0 0 0
          0 0 0 0 0 0
          0 0 0 0 0 0
          0 0 0 0 0 0
          0 0 0 0 0 0
          0 0 0 0 0 0
          0 0 0 0 0 0
          0 0 0 0 0 0
          0 0 0 0 0 0
          0 0 0 0 0 0
          0 0 0 0 0 0
          0 0 0 0 0 0
          0 0 0 0 0 0
          0 0 0 0 0 0
          0 0 0 0 0 0
          0 0 0 0 0 0
          0 0 0 0 0 0
          0 0 0 0 0 0
          0 0 0 0 0 0
          0 0 0 0 0 0
          0 0 0 0 0 0
          0 0 0 0 0 0
          0 0 0 0 0 0
          0 0 0 0 0 0
          0 0 0 0 0 0
          0 0 0 0 0 0
          0 0 0 0 0 0
          0 0 0 0 0 0
          0 0 0 0 0 0
          0 0 0 0 0 0
          0 0 0 0 0 0
          0 0 0 0 0 0
          0 0 0 0 0 0
          0 0 0 0 0 0
          0 0 0 0 0 0
          0 0 0 0 0 0
          0 0 0 0 0 0
          0 0 0 0 0 0
          0 0 0 0 0 0
          0 0 0 0 0 0
          0 0 0 0 0 0
          0 0 0 0 0 0
          0 0 0 0 0 0
          0 0 0 0 0 0
          0 0 0 0 0 0
          0 0 0 0 0 0
          0 0 0 0 0 -0
          0 0 0 0 0 0
          0 0 0 0 0 0
          0 0 0 0 0 0
          -0 0 0 0 0 0
          0 0 0 0 0 0
          0 0 0 0 0 0
          0 0 0 0 0 0
          0 0 0 0 0 0
          0 0 0 0 0 -0
          0 0 0 0 0 0
          0 0 0 0 0 0
          0 0 0 0 0 0
          0 0 0 0 0 0
          0 0 0 0 0 0
          0 0 0 0 0 0
          0 0 0 0 0 0
          0 0 0 0 0 0
          0 0 0 0 0 0
          0 0 0 0 0 0
          0 0 0 0 0 0
          0 0 0 0 0 0
          0 0 0 0 0 0
          0 0 0 0 0 0
          0 0 0 0 0 0
          0 0 0 0 0 0
          0 0 0 0 0 0
          0 0 0 0 0 0
          0 0 0 0 0 0
          0 0 0 0 0 0
          0 -0 0 0 0 0
          0 0 0 0 0 0
          0 0 0 0 0 0
          0 0 0 0 0 0
          0 0 0 0 0 0
          0 0 0 0 0 0
          0 0 0 0 0 0
          0 0 0 0 0 0
          0 0 0 0 0 0
          0 0 0 0 0 0
          0 0 0 0 0 0
          0 0 0 0 0 0
          0 -0 0 0 0 0
          0 0 0 0 0 0
          0 0 0 0 0 0
          0 0 0 0 0 0
          0 0 0 0 0 0
          0 0 0 0 0 0
          0 0 0 0 0 0
          0 0 0 0 0 0
          0 0 0 0 0 0
          0 0 0 0 0 0
          0 0 0 0 0 0
          0 0 0 0 0 0
          0 -0 0 0 0 0
          0 0 0 0 0 0
          0 0 0 0 0 0
          0 0 0 0 0 0
          0 0 0 0 -0 0
          0 0 0 0 0 0
          0 0 0 0 0 0
          0 0 0 0 0 0
          0 0 0 0 0 0
          0 0 0 0 0 0
          0 0 0 0 0 0
          0 0 0 0 0 0
          0 0 0 0 0 0
          0 0 0 0 0 0
          0 0 0 0 0 0
          0 0 0 0 0 0
          0 0 0 0 -0 0
          0 0 0 0 0 0
          0 0 0 0 0 0
          0 0 0 0 0 0
          0 0 0 0 0 0
          0 0 0 0 0 0
          0 0 0 0 0 0
          0 0 0 0 0 0
          0 0 0 0 0 0
          0 0 0 0 0 0
          0 0 0 0 0 0
          0 0 0 0 0 0
          0 0 0 0 0 0
          0 0 0 0 0 0
          0 0 0 0 0 0
          0 0 0 0 0 0
          0 0 0 0 0 0
          0 0 0 0 0 0
          0 0 0 0 0 0
          0 0 0 0 0 0
          0 0 0 0 0 0
          0 0 0 0 0 0
          0 0 -0 0 0 0
          0 0 0 0 0 0
          0 0 0 0 0 0
          0 0 0 0 0 0
          0 0 0 0 0 0
          0 0 0 0 0 0
          0 0 0 0 0 0
          0 0 0 0 0 0
          0 0 0 0 0 0
          0 0 0 0 0 0
          0 0 0 0 0 0
          0 0 0 0 0 0
          0 0 0 0 0 0
          0 0 0 0 0 0
          -0 0 0 0 0 0
          0 0 0 -0 0 0
          0 0 0 0 0 0
          0 0 0 0 0 0
          0 0 0 0 0 0
          0 0 0 0 0 0
          0 0 0 0 0 0
          0 0 0 0 0 0
          0 0 0 0 0 0
          0 0 0 0 0 0
          0 0 0 0 0 0
          0 0 0 0 0 0
          0 0 0 0 0 0
          0 0 0 0 0 0
          0 0 0 0 0 0
          0 0 0 0 0 0
          0 0 0 0 0 0
          0 0 0 0 0 0
          0 0 0 0 0 0
          0 0 0 0 0 0
          0 0 0 0 0 0
          0 0 0 0 0 0
          0 0 0 0 0 0
          0 0 0 0 0 0
          0 0 0 0 0 0
          0 0 0 0 0 0
          0 0 0 0 0 0
          0 0 0 0 0 0
          0 0 0 0 0 0
          0 0 0 0 0 0
          0 0 0 0 0 0
          0 0 -0 -0 0 0
          0 0 0 0 0 0
          0 0 0 0 0 0
          0 0 0 0 0 0
          0 0 0 0 0 0
          0 0 0 0 0 0
          0 0 0 0 0 0
          0 0 0 0 0 0
          0 0 0 0 0 0
          0 0 0 0 0 0
          0 0 0 0 0 -0
          0 0 0 0 0 0
          0 0 0 -0 0 0
          0 0 0 0 0 0
          0 0 0 0 0 0
          0 0 0 0 0 0
          0 0 0 0 0 0
          0 0 0 0 0 0
          0 0 0 0 0 0
          0 0 0 0 0 0
          0 0 0 0 -0 0
          0 0 0 0 0 0
          0 0 0 0 0 0
          0 0 0 0 0 0
          0 0 0 0 0 0
          0 0 0 0 0 0
          0 0 0 0 0 0
          0 0 0 0 0 0
          0 0 0 0 0 0
          0 0 0 0 0 0
          0 0 0 0 0 0
          0 0 0 0 0 0
          0 0 0 0 0 0
          0 0 0 0 0 0
          0 0 0 0 0 0
          0 0 0 0 0 0
          0 0 0 0 0 0
          0 0 0 0 0 0
          0 0 0 0 0 0
          0 0 0 0 0 0
          0 0 0 0 0 0
          0 0 0 0 0 0
          0 0 0 0 0 0
          0 0 0 0 0 0
          0 0 0 0 0 0
          0 0 0 0 0 0
          0 0 0 0 0 0
          -0 0 0 0 0 0
          0 0 0 0 0 0
          0 0 0 0 0 0
          0 0 0 0 0 0
          0 0 0 0 0 0
          0 0 0 0 0 0
          0 0 0 0 0 0
          0 0 0 0 0 0
          0 0 0 0 0 0
          0 0 0 0 0 0
          0 0 0 0 0 0
          0 0 0 0 0 0
          0 0 0 0 0 0
          0 0 0 0 0 0
          0 0 0 0 0 0
          0 0 0 0 0 0
          0 0 0 0 0 0
          0 0 0 0 0 0
          -0 0 0 0 0 0
          0 0 0 0 0 0
          0 0 0 0 0 0
          0 0 0 0 0 0
          0 0 0 -0 0 0
          0 0 0 0 0 0
          0 0 0 0 0 0
          0 0 0 0 0 0
          0 0 0 0 0 0
          0 0 0 0 0 0
          0 0 0 0 0 0
          0 0 0 0 0 0
          0 0 0 0 0 0
          0 0 0 0 0 0
          0 0 0 0 0 0
          0 0 0 0 0 0
          0 0 0 -0 0 0
          0 0 0 0 0 0
          0 0 0 0 0 0
          0 0 0 0 0 0
          0 0 0 0 0 0
          0 0 0 0 0 0
          0 0 0 0 0 0
          0 0 0 0 0 0
          0 0 0 0 0 0
          0 0 0 0 0 0
          0 0 0 0 0 0
          0 0 0 0 0 0
          0 0 0 0 0 0
          0 0 0 0 0 0
          0 0 0 0 0 0
          0 0 0 0 0 0
          0 0 0 0 0 -0
          0 0 0 0 0 0
          0 0 0 0 0 0
          0 0 0 0 0 0
          0 0 0 0 0 0
          0 0 0 0 0 0
          0 0 0 0 0 0
          0 0 0 0 0 0
          0 0 0 0 0 0
          0 0 0 0 0 0
          0 0 0 0 0 0
          0 0 0 0 0 0
          0 0 0 0 0 0
          0 0 0 0 0 0
          0 0 0 0 0 0
          0 0 0 0 0 0
          0 0 0 0 0 0
          0 0 0 0 0 0
          0 0 0 0 0 0
          0 0 0 0 0 0
          0 0 0 0 0 0
          0 0 0 0 0 0
          0 0 0 0 0 0
          0 0 0 0 0 0
          0 0 0 0 0 0
          0 0 0 0 0 0
          0 0 0 0 0 0
          0 0 0 0 0 0
          0 0 0 0 0 0
          0 0 0 0 0 0
          0 0 0 0 0 0
          0 0 0 0 0 0
          0 0 0 0 0 0
          0 0 0 0 0 0
          0 0 0 0 0 0
          0 0 0 0 0 0
          0 0 0 0 0 0
          0 0 0 0 0 0
          0 0 -0 0 0 0
          0 0 0 0 0 0
          0 0 0 0 0 0
          0 0 0 0 0 0
          0 0 0 0 0 0
          0 0 0 0 0 0
          0 0 0 0 0 0
          0 0 0 0 0 0
          0 0 0 0 0 0
          0 0 0 0 0 0
          0 0 0 0 0 0
          0 0 0 0 0 0
          0 0 0 0 0 0
          0 0 0 0 0 0
          0 0 0 0 0 0
          0 0 0 0 0 0
          0 0 0 0 0 -0
          0 0 0 0 0 0
          0 0 0 0 0 0
          0 0 0 0 0 0
          0 0 0 0 0 0
          0 0 0 0 0 0
          0 0 0 0 0 0
          0 0 0 0 0 0
          0 0 0 0 0 0
          0 0 0 0 0 0
          0 0 0 0 0 0
          0 0 0 0 0 0
          0 0 0 0 0 0
          0 0 0 0 0 0
          0 0 0 0 0 0
          0 0 0 0 0 0
          0 0 0 0 0 0
          0 0 0 0 0 0
          0 0 0 0 0 0
          -0 0 0 0 0 0
          0 0 0 0 0 0
          0 0 0 0 0 0
          0 0 0 0 0 0
          0 0 0 0 0 0
          0 0 0 0 0 0
          0 0 0 0 0 0
          0 0 0 0 0 0
          0 0 0 0 0 0
          0 0 0 0 0 0
          0 0 0 0 0 0
          0 0 0 0 0 0
          0 0 0 0 -0 0
          0 0 0 0 0 0
          0 0 0 0 0 0
          0 0 0 0 0 0
          0 0 0 -0 0 0
          0 0 0 0 0 0
          0 0 0 0 0 0
          0 0 0 0 0 0
          0 0 0 0 0 0
          0 0 0 0 0 0
          0 0 0 0 0 0
          0 0 0 0 0 0
          0 0 0 0 0 0
          0 0 0 0 0 0
          0 -0 0 0 0 0
          0 0 0 0 0 0
          0 0 0 0 0 0
          0 0 0 0 0 0
          0 0 0 0 0 0
          0 0 0 0 0 0
          0 0 0 0 0 0
          0 0 0 0 0 0
          0 0 0 0 0 0
          0 0 0 0 0 0
          0 0 0 0 0 0
          0 0 0 0 0 0
          0 0 0 0 0 0
          -0 0 0 0 0 0
          0 0 0 0 0 0
          0 0 0 0 0 0
          0 0 0 0 0 0
          0 0 0 0 0 0
          0 0 0 0 0 0
          0 0 0 0 0 0
          0 0 0 0 0 0
          0 0 0 0 0 0
          0 0 0 0 0 0
          0 0 0 0 0 0
          0 0 0 0 0 0
          0 0 0 0 0 0
          0 0 0 0 0 0
          0 0 0 0 0 0
          0 0 0 0 0 0
          0 0 0 0 0 0
          0 0 0 0 0 0
          0 0 0 0 0 0
          0 0 0 0 0 0
          0 0 0 0 0 0
          0 0 0 0 0 0
          0 0 0 0 0 0
          0 0 0 0 0 0
          0 0 0 0 0 0
          0 0 0 0 0 0
          0 0 0 0 0 0
          0 0 0 0 0 0
          0 0 0 0 0 0
          0 0 0 0 0 0
          0 0 0 0 0 0
          0 0 0 0 0 0
          0 0 0 0 0 0
          0 0 0 0 0 0
          0 0 0 -0 0 0
          0 0 0 0 0 0
          0 0 0 0 0 0
          0 0 0 0 0 0
          0 0 0 0 0 0
          0 0 0 0 0 0
          0 0 0 0 0 0
          0 0 0 0 0 0
          0 0 0 0 0 0
          0 0 0 0 0 0
          0 0 0 0 0 0
          0 0 0 0 0 0
          0 0 -0 0 0 0
          0 0 0 0 0 0
          0 0 0 0 0 0
          0 0 0 0 0 0
          0 0 0 0 0 0
          0 0 0 0 0 0
          0 0 0 0 0 0
          0 0 0 0 0 0
          0 0 0 0 0 0
          0 0 0 0 0 0
          0 0 0 0 0 0
          -0 0 0 0 0 0
          0 0 0 0 0 0
          0 0 0 0 0 0
          0 0 0 0 0 0
          0 0 0 0 0 0
          0 0 0 0 0 0
          0 0 0 0 0 0
          0 0 0 0 0 0
          0 0 0 0 0 0
          0 0 0 0 0 0
          0 0 0 0 0 0
          0 0 0 0 0 0
          0 0 0 0 0 0
          0 0 0 0 0 0
          0 0 0 0 0 0
          0 0 0 0 0 0
          0 0 -0 0 0 0
          0 0 0 0 0 0
          0 0 0 0 0 0
          0 0 0 0 0 0
          0 0 0 0 0 0
          0 0 0 0 0 0
          0 0 0 0 0 0
          0 0 0 0 0 0
          0 0 0 0 0 0
          0 0 0 -0 0 0
          0 0 0 0 0 0
          0 0 0 0 0 0
          0 0 0 0 0 0
          0 0 0 0 0 0
          0 0 0 0 0 0
          0 0 0 0 0 0
          0 -0 0 0 0 0
          0 0 0 0 0 0
          0 0 0 0 0 0
          0 0 0 0 0 0
          0 0 0 0 0 0
          0 0 0 0 0 0
          0 0 0 0 0 0
          0 0 0 0 0 0
          0 0 0 0 0 0
          0 0 0 0 0 0
          0 0 0 0 0 0
          0 0 0 0 0 0
          0 0 0 0 0 0
          0 0 0 0 0 0
          0 0 0 0 0 0
          0 0 0 0 0 0
          0 0 0 0 0 0
          0 0 0 -0 0 0
          0 0 0 0 0 0
          -0 0 0 0 0 0
          0 0 0 -0 0 0
          0 0 0 0 0 0
          0 0 0 0 0 0
          0 0 0 0 0 0
          0 0 0 0 0 0
          0 0 0 0 0 0
          0 0 0 0 0 0
          0 0 0 0 0 0
          0 0 0 0 0 0
          0 0 0 0 0 0
          0 0 0 0 0 0
          0 0 0 0 0 0
          0 0 0 0 0 0
          0 0 0 0 0 0
          0 0 0 0 0 0
          0 0 0 0 0 0
          0 0 0 0 0 0
          0 0 0 0 0 0
          0 0 0 0 0 0
          0 0 0 0 0 0
          0 0 0 0 0 0
          0 0 0 0 0 0
          0 0 0 0 0 0
          0 0 0 0 0 0
          0 0 0 0 0 0
          0 0 0 0 0 0
          -0 0 0 0 0 0
          0 0 0 0 0 0
          0 0 0 0 0 0
          0 0 0 0 0 0
          0 0 0 0 0 0
          0 0 0 0 0 0
          0 0 0 0 0 0
          0 0 0 0 0 0
          0 0 0 0 0 0
          0 0 0 0 0 0
          0 0 0 0 0 0
          0 0 0 0 0 0
          0 0 0 0 0 0
          0 0 0 0 0 0
          0 0 0 0 0 0
          0 0 0 0 0 0
          0 0 0 0 0 0
          0 0 0 0 0 0
          -0 0 0 0 0 0
          0 0 0 0 0 0
          0 0 0 0 0 0
          0 0 0 0 0 0
          0 0 0 0 0 0
          0 0 0 0 0 0
          0 0 0 0 0 0
          0 0 0 0 0 0
          0 0 0 0 0 0
          0 0 0 0 0 0
          0 0 -0 0 0 0
          0 0 0 0 0 0
          0 0 0 0 -0 0
          0 0 0 0 0 0
          0 0 0 0 0 0
          0 0 0 0 0 0
          0 0 0 0 0 0
          0 0 0 0 0 0
          0 0 0 0 -0 0
          0 0 0 0 0 0
          0 0 0 0 0 0
          0 0 0 0 0 0
          0 0 0 -0 0 0
          0 0 0 0 0 0
          0 0 0 0 0 0
          0 0 0 0 0 0
          0 0 0 0 0 -0
          0 0 0 0 0 0
          0 0 0 0 0 0
          0 0 0 0 0 0
          0 0 0 0 0 0
          0 0 0 0 0 0
          0 0 0 0 0 0
          0 0 0 0 0 0
          0 0 0 0 0 0
          0 0 0 0 0 0
          0 0 0 0 0 0
          0 0 0 0 0 0
          0 -0 0 0 0 0
          0 0 0 0 0 0
          0 0 0 0 0 0
          0 0 0 0 0 0
          0 0 0 0 0 0
          0 0 0 0 0 0
          0 0 0 0 0 0
          0 0 0 0 0 0
          0 0 0 0 0 0
          0 0 0 0 0 0
          -0 0 0 0 0 0
          0 0 0 0 0 0
          0 0 0 0 0 0
          0 0 0 0 0 0
          0 0 0 0 0 0
          0 0 0 0 0 0
          0 0 0 0 -0 0
          0 0 0 0 0 0
          0 -0 0 0 0 0
          0 0 0 0 0 0
          0 0 0 0 0 0
          0 0 0 0 0 -0
          0 0 0 0 0 0
          0 0 0 0 0 0
          0 0 0 0 0 0
          0 0 0 0 0 0
          0 0 0 0 0 0
          0 0 0 0 0 0
          0 0 0 0 0 0
          0 0 0 0 0 0
          0 0 0 0 0 -0
          0 0 0 0 0 0
          0 0 0 0 0 0
          0 0 0 0 0 0
          0 0 0 0 0 0
          0 0 0 0 0 0
          0 0 0 0 0 0
          0 0 0 0 0 0
          0 0 0 0 0 0
          0 0 0 0 0 0
          0 0 0 0 0 0
          0 0 0 0 0 0
          0 0 0 0 0 0
          0 0 0 0 0 0
          0 0 0 0 0 0
          0 0 0 0 0 0
          -0 0 0 0 0 0
          0 0 0 0 0 0
          0 0 0 0 0 0
          0 0 0 0 0 0
          0 0 0 0 0 0
          0 0 0 0 0 0
          0 0 0 0 0 0
          0 0 0 0 0 0
          0 0 0 0 0 0
          0 0 0 0 0 0
          0 0 0 0 0 0
          0 -0 0 0 0 0
          0 0 0 0 0 0
          0 0 0 0 0 0
          0 0 0 0 0 0
          0 0 0 0 0 0
          0 0 0 0 0 0
          0 0 0 0 0 0
          0 0 0 0 0 0
          0 0 0 0 0 0
          0 0 0 0 0 0
          0 0 0 0 0 0
          0 0 0 0 0 0
          0 0 0 0 0 0
          0 0 0 0 0 0
          0 0 0 0 0 0
          0 0 0 0 0 0
          0 0 0 0 -0 0
          0 0 0 0 0 0
          0 0 0 0 0 0
          0 0 0 0 0 0
          0 0 0 0 0 0
          0 0 0 0 0 0
          0 0 0 0 0 0
          0 0 0 0 0 0
          0 0 0 0 0 0
          0 0 0 0 0 0
          0 0 0 0 0 0
          0 0 0 0 0 0
          0 0 0 0 0 0
          0 0 0 0 0 0
          0 0 0 0 0 0
          0 0 0 0 0 0
          0 0 0 0 0 0
          0 0 0 0 0 0
          0 0 0 0 0 0
          0 0 0 -0 0 0
          0 0 0 0 0 0
          0 0 0 0 0 0
          0 0 0 0 0 0
          0 0 0 0 0 -0
          0 0 0 0 0 0
          0 0 0 0 0 0
          0 0 0 0 0 0
          0 0 0 0 -0 0
          0 0 0 0 0 0
          0 0 0 0 0 0
          0 0 0 0 0 0
          0 0 0 -0 0 0
          0 0 0 0 0 0
          0 0 0 0 0 0
          0 0 0 0 0 0
          0 0 0 0 0 0
          0 0 0 0 0 0
          0 0 0 -0 0 0
          0 0 0 0 0 0
          0 0 0 0 0 0
          0 0 0 0 0 0
          0 0 0 0 0 0
          0 0 0 0 0 0
          0 0 -0 0 0 0
          0 0 0 0 0 0
          0 0 0 0 0 0
          0 0 0 0 0 0
          0 0 0 0 0 0
          0 0 0 0 0 0
          0 0 -0 0 0 0
          0 0 0 0 0 0
          0 0 0 0 -0 0
          0 0 0 0 0 0
          0 0 0 0 0 0
          0 0 0 0 0 0
          0 0 0 0 0 0
          0 0 0 0 0 0
          -0 0 0 0 0 0
          0 0 0 0 0 0
          0 0 0 0 0 0
          0 0 0 0 0 0
          0 0 0 0 0 0
          0 0 0 0 0 -0
          0 0 0 0 0 0
          0 0 0 0 0 0
          0 0 0 0 0 0
          0 0 0 0 0 0
          0 0 0 0 0 0
          0 -0 0 0 0 0
          0 0 0 0 0 0
          0 0 0 0 0 0
          0 0 0 0 0 0
          0 0 0 0 0 0
          0 0 0 0 0 0
          0 0 0 0 0 0
          0 0 0 0 0 0
          0 0 0 0 0 0
          0 0 0 0 0 0
          0 0 0 0 0 0
          0 0 0 0 0 0
          0 0 0 0 0 0
          0 0 0 0 0 0
          0 0 0 0 0 0
          0 0 0 0 0 0
          0 0 0 0 0 0
          0 0 0 0 0 0
          0 0 0 0 0 0
          0 0 0 0 0 0
          0 0 0 0 0 0
          0 0 0 0 0 0
          0 0 0 0 -0 0
          0 0 0 -0 0 0
          0 0 0 0 0 0
          0 0 0 0 0 0
          0 0 0 0 0 0
          0 0 0 0 0 0
          0 0 0 0 0 0
          0 0 0 0 0 0
          0 0 0 0 0 0
          -0 0 0 0 0 0
          0 0 0 0 0 0
          0 -0 0 0 0 0
          0 0 0 0 0 0
          0 0 0 0 0 0
          0 0 0 0 0 0
          0 0 0 0 0 0
          0 0 0 0 0 0
          0 0 0 0 0 0
          0 0 0 0 0 0
          0 0 0 0 0 0
          0 0 0 0 0 0
          0 0 0 0 0 0
          0 0 0 0 0 0
          0 0 0 0 0 0
          0 0 0 0 0 0
          0 0 0 0 0 0
          0 0 0 0 0 0
          0 0 0 0 0 0
          0 0 0 0 0 0
          0 0 0 0 0 0
          0 0 0 0 0 0
          0 0 0 0 0 0
          0 0 0 0 0 0
          0 0 0 0 0 0
          0 0 0 0 0 0
          0 0 0 0 0 -0
          0 0 0 0 0 0
          0 0 0 0 0 0
          0 0 0 0 0 -0
          0 0 0 0 0 0
          0 0 0 0 0 0
          0 0 0 0 0 0
          0 0 0 0 0 0
          0 0 0 0 0 0
          0 0 0 0 0 0
          0 0 0 0 0 0
          0 0 0 0 0 0
          0 0 0 0 0 0
          -0 0 0 0 0 0
          0 0 0 0 0 0
          0 0 0 0 0 0
          0 0 0 0 0 0
          0 0 0 0 0 0
          0 0 0 0 0 -0
          0 0 0 0 0 0
          0 0 0 0 0 0
          0 -0 0 0 0 0
          0 0 0 0 0 0
          0 0 0 0 0 0
          0 0 0 0 0 0
          0 0 0 0 0 0
          0 0 0 0 0 0
          0 0 0 0 0 0
          0 0 0 0 0 0
          0 0 0 0 0 0
          0 -0 0 0 0 0
          0 0 0 0 0 0
          0 0 0 0 0 0
          0 0 0 0 0 0
          0 0 0 0 0 0
          0 0 0 0 0 0
          0 0 0 0 0 0
          0 0 0 0 0 0
          0 0 0 0 0 0
          0 0 0 0 0 0
          -0 0 0 0 0 0
          0 0 0 0 0 0
          0 0 0 0 0 0
          0 0 0 0 0 0
          0 0 0 -0 0 0
          0 0 0 0 0 0
          0 0 0 0 0 0
          0 0 0 0 0 0
          0 0 0 0 0 0
          0 0 0 0 0 0
          0 0 0 0 0 0
          0 0 0 0 0 0
          0 0 0 0 0 0
          0 0 0 0 0 0
          0 0 0 0 0 0
          0 0 0 0 0 0
          0 0 0 0 0 0
          0 0 0 0 0 0
          0 0 0 0 0 0
          0 0 0 0 0 0
          0 0 0 0 0 -0
          0 0 0 0 0 0
          0 0 0 0 0 0
          0 0 0 0 0 0
          0 0 0 0 0 0
          0 0 0 0 0 0
          0 0 0 0 0 0
          0 0 0 0 0 0
          0 0 0 0 0 0
          0 0 0 0 0 0
          0 0 0 0 0 0
          0 0 0 0 0 0
          0 0 0 0 0 0
          0 0 0 0 0 0
          0 0 -0 0 0 0
          0 0 0 0 0 0
          0 0 0 0 0 0
          0 0 0 0 0 0
          0 0 0 0 0 0
          0 0 0 0 0 0
          0 0 0 0 0 0
          0 0 0 0 0 0
          0 0 0 0 0 0
          0 0 -0 0 0 0
          0 -0 0 0 0 0
          0 0 0 0 0 0
          0 0 0 0 0 0
          0 0 0 0 0 0
          0 0 0 0 0 0
          0 0 0 0 0 0
          0 0 0 0 0 0
          0 0 0 0 0 0
          0 0 0 0 0 0
          0 0 0 0 0 0
          0 0 0 0 0 0
          0 0 0 0 0 0
          0 0 0 0 0 0
          0 0 0 0 0 0
          0 0 0 0 0 0
          0 0 0 0 0 0
          0 0 0 0 0 0
          0 0 0 0 0 0
          0 0 0 0 0 0
          0 0 0 0 0 0
          0 0 0 0 0 0
          0 0 0 0 0 0
          0 0 0 0 0 0
          0 0 0 0 0 0
          0 0 0 0 0 0
          0 0 0 0 0 0
          0 0 0 0 0 0
          0 -0 0 0 0 0
          0 0 0 0 0 0
          0 0 0 0 0 0
          0 0 0 0 0 0
          0 0 0 0 0 0
          0 0 0 0 0 0
          0 0 0 0 0 0
          0 0 0 0 0 0
          0 0 0 0 0 0
          0 0 0 0 0 0
          -0 0 0 0 0 0
          0 0 0 0 0 0
          0 0 0 0 0 0
          0 0 0 0 0 0
          0 0 0 0 0 0
          0 0 0 0 0 0
          0 0 0 0 0 0
          0 0 0 0 0 0
          0 0 0 0 0 0
          0 0 0 0 0 0
          0 0 0 0 0 0
          0 0 0 0 0 0
          0 0 0 0 0 0
          0 0 0 0 0 0
          0 0 0 0 0 0
          0 0 0 0 0 0
          0 0 0 0 0 0
          0 0 0 0 0 0
          0 0 0 0 0 0
          0 0 -0 0 0 0
          0 0 0 0 0 0
          0 0 0 0 -0 0
          0 0 0 0 0 0
          0 0 0 0 0 0
          0 0 0 0 0 0
          0 0 0 0 0 0
          0 0 0 0 0 0
          0 0 0 0 0 0
          0 0 0 0 0 0
          0 0 0 0 0 0
          -0 0 0 0 0 0
          0 0 0 0 0 0
          0 0 0 0 0 0
          0 0 0 0 0 0
          0 0 0 0 0 0
          0 0 0 0 0 0
          0 0 0 0 0 0
          0 0 0 0 0 0
          0 0 0 0 0 0
          0 0 0 0 0 0
          0 0 0 0 0 0
          0 0 0 0 0 0
          0 0 0 0 0 0
          0 0 0 0 0 0
          0 0 0 0 0 0
          0 0 0 0 0 0
          0 0 0 0 0 0
          0 0 0 0 0 0
          0 0 0 0 0 0
          0 0 0 0 0 0
          0 0 0 0 0 0
          0 0 0 0 0 0
          0 0 0 0 0 0
          0 0 0 0 0 0
          0 0 0 0 0 0
          0 0 0 0 0 0
          0 0 0 0 0 0
          0 0 0 0 0 0
          0 0 0 0 0 0
          0 0 0 0 0 0
          0 0 0 0 0 0
          0 0 0 0 0 0
          0 0 0 0 0 0
          0 0 0 0 0 0
          0 0 0 0 0 0
          0 0 0 0 0 0
          0 0 0 0 0 0
          0 0 0 0 0 0
          0 0 0 0 0 0
          0 0 0 0 0 0
          0 0 0 0 0 0
          0 0 0 0 0 0
          0 0 0 0 0 0
          0 0 0 0 0 0
          0 0 0 0 0 0
          0 0 0 0 0 0
          0 0 0 0 0 0
          0 0 0 0 0 0
          -0 0 0 0 0 0
          0 0 0 0 0 0
          0 0 0 0 0 0
          0 0 0 0 0 0
          0 0 0 0 0 0
          0 0 0 0 0 0
          0 0 0 0 0 0
          0 0 0 0 0 0
          0 0 0 0 0 0
          0 0 0 0 0 0
          0 0 0 0 0 0
          0 0 0 0 0 0
          0 0 0 0 0 0
          0 0 0 0 0 0
          0 -0 0 0 0 0
          0 0 0 0 0 0
          0 0 0 0 0 0
          0 0 0 0 0 0
          0 0 0 0 0 0
          0 0 0 0 0 0
          0 0 0 0 0 0
          0 0 0 0 0 0
          0 0 0 0 0 0
          0 0 0 0 0 0
          -0 0 0 0 0 0
          0 0 0 0 0 0
          0 0 0 0 0 0
          0 0 0 0 0 0
          0 0 0 0 0 0
          0 0 0 0 0 0
          0 0 0 0 0 0
          0 0 0 0 0 0
          0 0 0 0 0 0
          0 0 0 0 0 0
          0 0 0 0 0 0
          0 0 0 0 0 0
          0 0 0 0 0 0
          0 0 0 -0 0 0
          0 0 0 0 0 0
          0 0 0 0 0 0
          0 0 0 0 0 0
          0 0 0 0 0 0
          0 0 0 0 0 0
          0 0 0 0 0 0
          0 -0 0 0 0 0
          0 0 0 0 0 0
          0 0 0 0 0 0
          0 0 0 0 0 0
          0 0 0 0 0 0
          0 0 0 0 0 0
          0 0 0 0 0 0
          0 0 0 0 0 0
          0 0 0 0 0 0
          0 0 0 0 0 0
          0 0 0 0 0 0
          0 0 0 0 0 0
          0 0 0 0 0 0
          0 0 0 0 0 0
          0 0 0 0 0 0
          0 -0 0 0 0 0
          0 0 0 0 0 0
          0 0 0 0 0 0
          0 0 0 0 0 0
          0 0 0 0 0 0
          0 0 0 0 0 0
          0 0 0 0 0 0
          -0 0 0 0 0 0
          0 0 0 0 0 0
          0 0 0 0 0 -0
          0 0 0 0 0 0
          0 0 0 0 0 0
          0 0 0 0 0 0
          -0 0 0 0 0 0
          0 0 0 0 0 0
          0 0 0 0 0 0
          0 0 0 0 0 0
          0 0 0 0 0 0
          0 0 0 0 0 0
          0 0 0 0 0 0
          0 0 0 0 0 0
          0 0 0 0 0 0
          0 0 0 0 0 0
          0 0 0 0 0 0
          0 0 0 0 0 0
          0 0 0 0 0 0
          0 0 0 0 0 0
          0 0 0 0 0 0
          0 0 0 0 0 0
          0 0 0 0 0 0
          0 0 0 0 0 0
          0 0 0 0 0 0
          0 0 0 0 0 0
          0 0 0 0 0 0
          0 0 0 0 0 0
          0 0 0 0 0 0
          0 0 0 0 0 0
          0 0 0 0 0 0
          0 0 0 0 0 0
          0 0 0 0 0 0
          0 0 0 0 0 0
          0 0 0 0 0 0
          0 0 0 0 0 0
          -0 0 0 0 0 0
          0 0 0 0 0 0
          0 0 0 0 0 0
          0 0 0 0 0 0
          0 0 0 0 0 0
          0 0 0 0 0 0
          0 0 0 0 0 0
          0 0 0 0 0 0
          0 0 0 0 0 0
          0 0 0 0 0 0
          0 0 0 0 0 0
          0 0 0 0 0 0
          0 0 0 0 0 0
          0 0 0 0 0 0
          0 0 0 0 0 0
          0 0 0 0 0 0
          0 0 0 0 0 0
          0 0 0 0 0 0
          0 0 0 0 0 0
          0 0 0 0 0 0
          0 0 0 0 0 0
          0 0 0 0 0 0
          0 0 0 0 0 0
          0 0 0 0 0 0
          0 0 0 0 0 0
          0 0 -0 0 0 0
          0 0 0 0 0 0
          0 0 0 0 0 0
          0 0 0 0 0 0
          0 0 0 0 0 -0
          0 0 0 0 0 0
          0 0 0 0 0 0
          0 0 0 0 0 0
          0 0 0 0 0 0
          0 0 0 0 0 0
          0 0 0 0 0 0
          0 0 0 0 0 0
          0 0 0 0 0 0
          0 0 0 0 0 0
          0 0 0 0 0 0
          0 0 -0 0 0 0
          0 0 0 0 0 0
          0 0 0 0 -0 0
          0 0 0 0 0 0
          0 0 0 0 0 0
          0 0 0 0 0 0
          0 0 0 0 0 0
          0 0 0 0 0 0
          0 0 0 0 0 0
          0 0 0 0 0 0
          0 0 0 0 0 0
          0 0 0 0 0 0
          0 0 0 0 0 0
          0 -0 0 0 0 0
          0 0 0 0 0 0
          0 0 0 0 0 0
          0 0 0 0 0 0
          0 0 0 0 0 0
          0 0 0 0 0 0
          0 0 0 0 0 0
          -0 0 0 0 0 0
          0 0 0 0 0 0
          0 0 0 0 0 0
          0 0 0 0 -0 0
          0 0 0 0 0 0
          0 0 0 0 0 0
          0 0 0 0 0 0
          0 0 0 0 0 0
          0 0 0 0 0 0
          0 0 0 0 0 0
          0 0 0 0 0 0
          0 0 0 0 0 0
          0 0 0 0 0 0
          0 0 0 0 0 0
          0 0 0 0 0 0
          0 0 0 0 0 0
          0 0 0 -0 0 0
          0 0 0 0 0 0
          0 0 0 0 0 0
          0 0 0 -0 0 0
          0 0 0 0 0 0
          0 0 0 0 0 0
          0 0 -0 0 0 0
          0 -0 0 0 0 0
          -0 0 0 0 0 0
          0 0 0 0 0 0
          0 -0 0 0 0 0
          0 0 0 0 0 0
          0 0 0 0 0 0
          0 0 0 0 0 0
          0 0 0 0 0 0
          0 0 0 0 0 0
          0 0 0 0 0 0
          0 0 0 0 0 0
          0 0 0 0 0 0
          0 0 0 0 0 -0
          0 0 0 0 0 0
          0 0 0 0 0 0
          0 0 0 0 0 0
          0 0 0 0 0 0
          0 0 0 0 0 0
          0 0 0 0 0 0
          -0 0 0 0 0 0
          0 0 0 0 0 0
          0 0 0 0 0 0
          0 0 0 0 0 0
          0 0 0 0 0 0
          0 0 0 0 0 0
          0 0 0 0 0 0
          0 0 0 0 0 0
          0 -0 0 0 0 0
          0 0 0 0 0 0
          0 0 0 0 0 0
          0 0 0 0 0 0
          0 0 0 0 0 0
          0 0 0 0 0 0
          0 0 0 0 0 0
          0 0 0 0 0 0
          0 0 0 0 0 0
          0 -0 0 0 0 0
          0 0 0 0 0 0
          0 0 0 -0 0 0
          0 0 0 0 0 0
          0 0 0 0 0 0
          0 0 -0 0 0 0
          0 0 0 0 0 0
          0 0 0 0 0 0
          0 0 0 0 0 0
          0 0 0 0 0 0
          0 0 0 0 -0 0
          0 0 0 0 0 0
          0 0 0 0 0 0
          0 0 0 0 0 0
          0 0 0 0 0 0
          0 -0 0 0 0 0
          0 0 0 0 0 0
          0 0 0 0 0 0
          0 -0 0 0 0 0
          0 0 0 0 0 0
          0 0 0 0 0 0
          0 0 0 0 0 0
          0 0 0 0 0 0
          0 0 -0 0 0 0
          0 0 0 0 0 0
          0 0 0 0 0 0
          0 0 0 0 0 0
          0 0 0 0 0 0
          0 0 0 0 0 0
          0 0 0 0 0 0
          0 0 0 0 0 0
          0 0 0 0 0 0
          0 0 0 0 0 0
          0 0 0 0 0 0
          0 0 0 0 0 0
          0 0 0 0 0 0
          0 0 0 0 0 0
          0 0 0 0 0 0
          0 0 0 0 0 0
          0 0 0 0 0 -0
          0 0 0 0 0 0
          0 0 0 0 0 0
          0 0 0 0 0 -0
          0 0 0 0 0 0
          0 0 0 0 0 0
          0 0 0 0 0 0
          0 0 0 0 0 0
          0 0 0 0 0 0
          0 0 0 0 0 0
          0 0 0 0 0 0
          0 0 0 0 0 0
          0 0 0 0 0 0
          0 0 0 0 0 0
          0 0 0 0 0 0
          0 0 0 0 0 0
          0 0 0 0 0 0
          0 0 0 0 0 0
          0 0 0 0 0 0
          0 0 0 0 0 0
          0 0 0 0 0 0
          0 0 0 0 0 0
          0 0 0 0 0 0
          0 0 0 0 0 0
          0 0 0 0 0 0
          0 0 0 0 0 0
          0 0 0 0 0 0
          0 0 0 0 0 0
          0 0 0 0 0 0
          0 0 0 0 0 0
          0 -0 0 0 0 0
          0 0 0 0 0 0
          0 0 0 0 0 0
          0 0 0 0 0 0
          0 0 0 0 0 0
          0 0 -0 0 0 0
          0 0 0 0 0 0
          0 0 0 0 0 0
          0 0 0 0 0 0
          0 0 0 0 0 0
          0 0 0 0 -0 0
          0 0 0 0 0 0
          0 0 0 0 0 0
          0 0 0 0 0 0
          0 0 0 0 0 0
          0 0 0 0 0 0
          0 0 0 0 0 0
          0 0 0 0 0 0
          0 0 0 0 0 0
          0 0 0 0 -0 0
          0 0 0 0 0 0
          0 0 0 0 0 0
          0 0 0 0 0 0
          0 0 0 0 0 0
          0 0 0 0 0 0
          0 0 0 0 -0 0
          0 0 0 0 0 0
          0 0 0 0 0 0
          0 0 0 0 0 0
          0 0 0 0 0 0
          0 0 0 0 0 0
          0 0 0 0 -0 0
          0 0 0 0 0 0
          0 0 0 0 0 0
          -0 0 0 0 0 0
          0 0 0 0 0 0
          0 0 0 0 0 0
          0 0 0 0 0 0
          0 0 0 0 0 0
          0 -0 0 0 0 0
          0 0 0 0 0 0
          0 0 0 0 0 0
          0 0 0 0 0 0
          0 0 0 0 0 0
          0 0 0 0 0 0
          0 0 0 0 0 0
          0 0 0 0 0 0
          0 0 0 -0 0 0
          0 0 0 0 0 0
          0 0 0 0 0 0
          0 0 0 -0 0 0
          0 0 0 0 0 0
          0 0 0 0 0 0
          0 0 0 0 0 0
          0 0 0 0 0 0
          0 0 0 0 0 0
          0 0 0 -0 0 0
          0 0 0 0 0 0
          0 0 0 0 0 0
          0 0 0 0 0 0
          0 -0 0 0 0 0
          -0 0 0 0 0 0
          0 0 0 0 0 0
          0 0 0 0 0 0
          0 0 0 0 0 0
          0 0 0 0 0 0
          0 0 0 0 0 0
          0 0 0 0 0 0
          0 0 0 0 0 0
          0 -0 0 0 0 0
          0 0 0 0 0 0
          0 0 0 0 0 0
          0 0 0 0 0 0
          -0 0 0 0 0 0
          0 0 0 0 0 0
          0 0 0 0 0 0
          0 0 0 0 0 0
          0 0 0 0 0 0
          0 0 0 0 0 0
          0 0 0 0 0 0
          0 0 -0 0 0 0
          0 0 0 0 0 0
          0 0 0 0 0 0
          0 0 0 0 0 0
          0 0 0 0 0 0
          0 0 0 0 0 0
          0 0 0 -0 0 0
          0 0 0 0 0 0
          0 0 0 0 0 0
          0 0 0 0 0 0
          0 0 0 0 0 0
          0 0 0 0 0 0
          0 0 0 0 0 0
          0 -0 0 0 0 0
          0 0 0 0 0 0
          0 0 0 0 0 0
          0 0 0 0 0 0
          0 0 0 0 -0 0
          0 0 0 0 0 0
          0 0 0 0 0 0
          0 0 0 0 0 0
          0 0 0 0 0 0
          0 0 0 0 0 0
          0 0 0 0 0 0
          0 0 0 0 0 0
          0 0 0 0 0 0
          0 0 0 0 0 0
          0 0 0 0 0 0
          0 0 0 0 0 0
          0 0 0 0 0 0
          0 0 0 0 0 0
          0 0 0 0 0 0
          0 0 0 0 0 0
          0 0 0 -0 0 0
          0 0 0 0 0 0
          0 0 0 0 0 0
          0 0 0 0 0 0
          0 0 0 0 0 0
          0 0 0 0 0 0
          0 0 0 0 0 0
          0 0 0 0 0 0
          0 0 0 0 0 0
          0 0 0 0 0 0
          0 0 0 0 0 0
          0 0 0 0 0 0
          0 0 0 0 0 0
          0 0 0 0 0 0
          0 0 0 0 0 0
          0 0 0 0 0 0
          0 0 0 0 0 0
          0 0 0 0 0 0
          0 0 0 0 0 0
          0 0 0 0 0 0
          0 0 0 0 0 0
          0 0 -0 0 0 0
          0 0 0 0 0 0
          0 0 0 0 0 0
          0 0 0 0 0 0
          0 0 0 0 0 0
          -0 0 0 0 0 0
          0 0 0 0 0 0
          0 0 0 0 0 0
          0 0 0 0 0 0
          0 0 -0 0 0 0
          0 0 0 0 0 0
          0 0 0 0 0 0
          0 0 0 0 0 0
          0 0 0 0 0 0
          0 0 0 0 0 0
          0 0 0 0 0 0
          0 0 0 0 0 0
          -0 0 0 0 0 0
          0 0 0 0 0 0
          0 0 0 0 0 0
          0 0 0 0 0 0
          0 0 0 0 0 0
          0 0 0 0 0 0
          0 0 0 0 0 0
          0 0 0 0 0 0
          0 0 0 0 0 0
          0 0 0 0 0 0
          0 0 0 0 0 0
          0 0 0 0 0 0
          0 0 0 0 0 0
          0 0 0 0 0 0
          0 0 0 0 0 -0
          0 0 0 0 0 0
          0 0 0 0 0 0
          0 0 0 0 0 0
          0 0 0 0 0 0
          0 0 0 0 0 0
          0 0 0 0 0 0
          0 0 0 0 0 0
          0 0 0 0 0 0
          0 0 0 0 0 0
          0 0 0 0 0 0
          0 0 0 0 0 0
          0 0 0 0 0 0
          -0 0 0 0 0 0
          0 0 0 0 0 0
          0 0 0 0 0 0
          0 0 0 0 0 0
          0 0 0 0 0 0
          0 0 0 0 0 0
          0 0 0 0 0 0
          0 0 0 0 0 0
          0 0 0 0 0 0
          0 0 0 0 0 0
          0 0 0 0 0 0
          0 0 0 0 0 0
          0 0 0 0 0 0
          0 0 0 0 0 0
          0 0 0 0 0 0
          0 0 0 0 0 0
          0 0 0 0 0 0
          0 0 0 0 0 0
          0 0 0 0 0 0
          0 0 0 0 0 0
          0 0 0 0 0 0
          0 0 0 0 0 0
          0 0 0 0 0 0
          0 0 0 0 0 0
          0 0 0 0 0 0
          0 0 0 0 0 0
          0 0 0 0 0 0
          0 0 0 0 0 0
          0 0 0 0 0 0
          0 0 0 0 0 0
          0 0 0 0 0 0
          0 0 0 0 0 0
          0 0 0 0 0 0
          0 0 0 0 0 0
          0 0 0 0 0 0
          0 0 0 0 0 0
          0 0 0 0 0 0
          0 0 0 0 0 0
          0 0 0 0 0 0
          0 0 0 0 0 0
          0 0 0 0 0 0
          0 0 0 0 0 0
          0 0 0 0 0 0
          0 0 0 0 0 0
          0 0 0 0 0 0
          0 0 0 0 0 0
          0 0 0 0 0 0
          0 0 0 0 0 0
          0 0 0 0 0 0
          0 0 0 0 0 0
          0 0 0 0 0 0
          0 0 0 0 0 0
          0 0 0 0 0 0
          0 0 0 0 0 0
          0 0 0 0 0 0
          0 0 0 0 0 0
          0 0 0 0 0 0
          0 0 0 0 0 0
          0 0 0 0 0 0
          0 0 0 0 0 0
          0 0 0 0 0 0
          0 0 0 0 0 0
          0 0 0 0 0 0
          0 0 0 0 0 0
          0 0 0 0 0 0
          0 0 0 0 0 0
          0 0 0 0 0 0
          0 0 0 0 0 0
          0 0 0 0 0 0
          0 0 0 0 0 0
          0 0 0 0 0 0
          0 0 0 0 0 0
          0 0 0 0 0 0
          0 0 0 0 0 0
          0 0 0 0 0 0
          0 0 0 0 0 0
          0 0 0 0 0 0
          0 0 0 0 0 0
          0 0 0 0 0 0
          0 0 0 0 0 0
          0 0 0 0 0 0
          0 0 0 0 0 0
          0 0 0 0 0 0
          0 -0 0 0 0 0
          0 0 0 0 0 0
          0 0 0 0 0 0
          0 0 0 0 0 0
          0 0 0 0 0 0
          0 0 0 0 0 0
          0 -0 0 0 0 0
          -0 0 0 0 0 0
          0 0 0 0 0 0
          0 0 0 0 0 0
          0 0 0 0 0 0
          0 0 0 0 0 0
          0 0 0 0 0 0
          0 0 0 0 0 0
          0 0 0 0 0 0
          0 0 0 0 0 0
          0 0 0 0 0 0
          0 0 0 -0 0 0
          0 0 0 0 0 0
          0 0 0 0 -0 0
          0 0 0 0 0 0
          0 0 0 0 0 0
          0 0 0 0 0 0
          0 0 0 0 0 0
          0 -0 0 0 0 0
          0 0 0 0 0 0
          0 0 0 0 0 0
          0 0 0 0 0 -0
          -0 0 0 0 0 0
          0 0 0 0 0 0
          0 0 0 0 0 0
          0 0 0 0 0 0
          0 0 0 0 0 0
          0 0 0 0 0 0
          -0 0 0 0 0 0
          0 0 0 0 0 0
          0 0 0 0 0 0
          0 0 0 0 0 0
          0 0 0 0 0 0
          0 0 0 0 0 0
          0 0 0 0 -0 0
          0 0 0 0 0 0
          0 0 0 0 0 0
          0 0 0 0 0 0
          0 0 0 0 0 0
          0 0 0 0 0 -0
          0 0 0 0 0 0
          0 0 0 0 0 0
          0 0 0 0 0 0
          0 0 0 0 0 0
          0 0 -0 -0 -0 0
          -0 -0 0 0 0 0
          0 0 0 0 0 0
          0 0 0 0 0 0
          0 0 0 0 0 0
          0 0 0 0 0 0
          0 0 0 0 0 0
          0 0 0 0 0 0
          0 0 0 0 0 0
          0 0 0 0 0 0
          0 -0 0 0 0 0
          0 0 0 0 0 0
          0 0 0 0 0 0
          0 0 0 0 0 0
          0 0 0 0 0 0
          0 0 0 -0 0 0
          0 0 0 0 0 0
          0 0 0 0 0 0
          0 0 0 0 0 0
          0 0 0 0 0 0
          0 0 0 0 0 0
          0 0 0 0 0 0
          0 0 0 0 0 0
          0 0 0 0 0 0
          0 0 0 0 0 0
          0 0 0 0 0 -0
          0 0 0 0 0 0
          0 0 0 0 0 0
          0 0 0 0 0 0
          0 0 0 0 -0 0
          0 0 0 0 0 0
          0 0 0 0 0 0
          0 0 0 0 0 0
          0 0 0 0 0 0
          0 0 0 0 0 0
          0 0 0 0 0 0
          0 0 0 0 0 0
          0 0 0 0 0 0
          0 0 0 0 0 0
          0 0 0 0 0 0
          0 0 0 0 0 0
          0 0 0 0 0 0
          0 0 0 0 0 0
          0 0 0 0 0 0
          0 0 0 0 0 0
          0 0 0 0 0 0
          0 0 0 0 0 0
          0 0 0 0 0 0
          0 0 0 0 0 0
          0 -0 0 0 0 0
          0 0 0 0 0 0
          0 0 0 0 0 0
          0 -0 0 0 0 0
          0 0 0 0 0 0
          0 0 0 0 0 0
          0 0 0 0 0 0
          0 0 0 0 0 0
          0 0 -0 0 0 0
          0 0 0 0 0 0
          0 0 0 0 0 0
          0 0 0 0 0 0
          0 0 0 0 0 0
          0 0 0 0 0 0
          0 0 0 0 0 0
          0 0 0 0 0 0
          0 0 0 0 0 0
          0 0 0 0 0 0
          0 0 0 0 0 0
          -0 0 0 0 0 0
          0 0 0 0 0 0
          0 0 0 0 0 0
          0 0 0 0 0 0
          0 0 0 0 0 0
          0 0 0 0 0 0
          0 0 0 0 0 0
          0 0 0 0 0 0
          0 0 0 0 0 0
          -0 0 0 0 0 0
          0 0 0 0 0 0
          0 0 0 0 0 0
          0 0 0 0 0 0
          0 0 0 0 0 0
          0 0 0 0 0 0
          0 0 0 0 0 0
          0 0 0 0 0 0
          0 0 0 0 0 0
          0 0 0 0 0 0
          0 0 0 0 0 0
          0 0 0 0 0 0
          0 0 0 0 0 0
          0 0 0 0 0 0
          0 0 0 0 0 0
          0 0 0 0 0 0
          0 0 0 0 0 0
          0 -0 0 0 0 0
          0 0 0 0 0 0
          0 0 -0 0 0 0
          0 0 0 0 0 0
          0 0 0 0 0 0
          0 0 0 0 0 0
          0 0 0 0 0 0
          0 0 0 0 0 0
          0 0 0 -0 0 0
          0 0 0 0 0 0
          0 0 0 0 -0 0
          0 0 0 0 0 0
          0 0 0 0 0 -0
          -0 0 0 0 0 0
          0 0 0 0 0 0
          0 0 0 0 0 0
          0 0 0 0 0 0
          0 0 0 0 0 0
          0 0 0 0 0 0
          0 0 0 0 0 0
          0 0 0 0 0 0
          0 0 0 0 0 0
          0 0 0 0 0 0
          0 0 0 0 0 0
          0 0 0 0 0 0
          0 0 0 0 0 0
          0 0 0 -0 0 0
          0 0 0 0 0 0
          0 0 0 0 0 0
          0 0 0 0 0 0
          0 0 0 0 0 -0
          0 0 0 0 0 0
          0 0 0 -0 0 0
          0 0 0 0 0 0
          0 0 0 0 0 0
          0 0 0 0 0 0
          0 -0 0 0 0 0
          0 0 0 0 0 0
          0 0 0 0 0 0
          0 0 0 0 0 0
          0 0 0 0 0 0
          0 0 0 0 0 0
          0 0 0 0 0 0
          0 0 0 0 0 0
          0 0 0 0 0 0
          0 0 0 0 0 0
          0 0 0 0 0 0
          0 0 0 0 0 0
          0 0 0 0 0 0
          0 0 0 0 0 0
          0 0 0 0 0 0
          0 0 0 0 0 0
          0 0 0 0 0 0
          0 0 0 0 0 0
          0 0 0 0 0 0
          0 0 0 0 0 0
          0 0 0 0 0 0
          0 0 0 0 0 0
          0 0 0 0 0 0
          0 0 0 0 0 0
          0 0 0 0 0 0
          0 0 0 0 0 0
          0 0 0 0 0 0
          0 0 0 0 0 -0
          0 0 0 0 0 0
          0 0 0 0 0 0
          0 0 0 0 0 0
          0 0 0 0 0 0
          0 0 0 0 0 0
          0 0 0 0 0 0
          0 0 0 0 0 0
          0 0 0 0 0 0
          0 0 0 0 0 0
          0 0 0 0 0 0
          0 0 0 0 0 0
          0 0 0 0 0 0
          0 0 0 0 0 0
          0 0 0 0 0 0
          0 0 0 0 0 0
          0 0 0 0 0 0
          0 0 0 0 0 0
          0 0 0 0 0 0
          0 0 0 0 0 0
          0 0 0 0 0 0
          0 0 0 0 0 0
          0 0 0 0 -0 0
          0 0 0 0 0 0
          0 0 0 0 0 0
          0 0 0 0 0 0
          0 0 0 0 0 0
          0 0 0 0 0 0
          0 0 0 0 0 0
          0 0 0 0 0 0
          0 0 0 0 0 0
          0 0 0 0 0 0
          0 0 0 0 0 0
          0 0 0 0 0 0
          0 0 0 0 0 0
          0 0 0 0 0 0
          0 0 0 0 0 0
          0 0 0 0 0 0
          0 0 0 0 0 0
          0 0 0 0 0 0
          0 0 0 0 0 0
          0 0 0 0 0 0
          0 -0 0 0 0 0
          0 0 0 0 0 0
          0 0 0 0 0 0
          0 0 0 0 0 0
          0 0 0 0 0 0
          0 0 0 0 0 0
          0 0 0 0 0 0
          0 0 0 0 0 0
          0 0 0 0 0 0
          0 0 0 0 0 0
          0 0 0 0 0 0
          0 0 0 0 0 0
          0 -0 0 0 0 0
          0 0 0 0 0 0
          0 0 0 0 0 0
          0 0 0 0 0 0
          0 0 0 0 0 0
          0 0 0 0 0 0
          0 0 0 0 0 0
          0 0 0 0 0 0
          0 0 0 -0 0 0
          0 0 0 0 0 0
          -0 0 0 0 0 0
          0 0 0 0 0 0
          0 0 0 0 0 0
          0 0 0 0 0 0
          0 0 0 -0 0 0
          0 0 0 0 0 0
          0 0 0 0 0 0
          0 0 0 0 0 0
          0 0 0 0 0 0
          0 0 0 0 0 0
          0 0 0 0 0 0
          0 0 0 0 0 0
          0 0 0 0 0 0
          0 0 0 0 0 0
          0 0 0 0 0 0
          0 0 0 0 0 0
          0 0 0 0 0 0
          0 0 0 0 0 0
          0 0 0 0 0 0
          0 0 0 0 0 0
          0 0 0 0 0 0
          0 0 0 0 0 0
          0 0 0 0 0 0
          0 0 0 0 0 0
          -0 0 0 0 0 0
          0 0 0 0 0 0
          0 0 0 0 0 0
          0 0 0 0 0 0
          0 0 0 0 0 0
          0 0 0 0 0 0
          0 0 0 0 0 0
          0 0 0 0 0 0
          0 0 0 0 0 0
          0 0 0 0 0 0
          0 0 0 0 0 0
          0 0 0 0 0 0
          -0 0 0 0 0 0
          0 0 0 0 0 0
          0 0 0 0 0 0
          0 0 0 0 0 0
          0 0 0 0 0 0
          0 0 0 0 0 0
          0 0 0 0 0 0
          0 0 0 0 0 0
          0 0 0 0 0 0
          0 0 0 0 0 0
          0 0 0 0 0 0
          0 0 0 0 0 0
          0 0 0 0 0 0
          0 0 0 0 0 0
          0 0 0 0 0 0
          0 0 0 0 0 0
          0 0 0 0 0 0
          0 0 0 0 0 0
          0 0 0 0 0 0
          0 0 0 0 0 0
          0 0 0 0 0 0
          0 0 0 0 0 0
          0 0 0 0 0 0
          0 0 0 0 0 0
          0 0 0 0 0 0
          0 0 0 0 0 0
          0 0 0 0 0 0
          0 0 0 0 0 0
          0 0 0 0 0 0
          0 0 0 0 0 0
          0 0 0 0 0 0
          0 0 0 0 0 0
          0 0 0 0 0 0
          0 0 0 0 0 0
          0 0 0 0 0 0
          0 0 0 0 0 0
          0 0 0 0 0 0
          0 0 0 0 0 0
          0 0 0 0 0 0
          0 0 0 0 0 0
          0 0 0 0 0 0
          0 0 0 0 0 0
          0 0 0 0 0 0
          0 0 0 0 0 0
          0 0 0 0 0 0
          0 0 0 0 0 0
          0 0 0 0 0 0
          0 0 0 0 0 0
          0 0 0 0 0 0
          0 0 0 0 0 0
          0 0 0 0 0 0
          -0 0 0 0 0 0
          0 0 0 0 0 0
          0 0 0 0 0 0
          0 0 0 0 0 0
          0 0 0 0 0 0
          0 0 0 0 0 0
          0 0 0 0 0 0
          0 0 0 0 0 0
          0 -0 0 0 0 0
          0 0 0 0 0 0
          0 0 0 0 0 0
          0 0 0 0 0 0
          0 0 0 0 0 0
          0 0 0 0 0 0
          0 0 0 0 0 0
          -0 0 0 0 0 0
          0 0 0 0 0 0
          0 0 0 0 0 0
          0 0 0 0 0 0
          0 0 0 0 0 0
          0 0 0 0 0 0
          0 0 0 0 0 0
          0 0 0 0 0 0
          0 0 0 0 0 0
          0 0 0 0 0 0
          0 0 0 -0 0 0
          0 0 0 0 0 0
          0 0 0 0 0 0
          0 0 0 0 0 0
          0 0 0 0 0 0
          0 0 0 0 0 0
          0 0 0 0 0 0
          0 0 0 0 0 0
          0 0 0 0 0 0
          0 0 0 0 0 0
          0 -0 0 0 0 0
          0 0 0 0 0 0
          0 0 0 0 0 0
          0 0 0 0 0 0
          0 0 0 0 0 0
          0 0 0 0 0 0
          0 0 0 0 0 0
          0 0 0 0 0 0
          0 0 0 0 0 0
          0 0 0 0 0 0
          0 0 0 0 0 0
          0 0 0 -0 0 0
          0 0 0 0 0 0
          0 0 0 0 0 0
          0 0 0 0 0 0
          0 0 0 0 0 -0
          0 0 0 0 0 0
          0 0 0 0 0 0
          0 0 0 0 0 0
          0 0 0 0 0 0
          0 0 0 0 0 0
          0 0 0 0 0 0
          0 0 0 0 0 0
          0 0 0 0 0 0
          0 0 0 0 0 0
          0 0 0 0 0 0
          0 0 0 -0 0 0
          0 0 0 0 0 0
          0 0 0 0 0 0
          0 0 0 0 0 0
          0 0 0 0 0 0
          0 0 0 0 0 0
          0 0 0 0 0 0
          0 0 0 0 0 0
          -0 0 0 0 0 0
          0 0 0 0 0 0
          0 0 0 0 0 0
          0 0 0 0 0 0
          0 0 0 0 0 0
          0 0 0 0 0 0
          0 0 0 0 0 0
          0 0 0 0 0 0
          0 0 0 0 0 0
          -0 0 0 0 0 0
          0 0 0 0 0 0
          0 -0 0 0 0 0
          0 0 0 0 0 0
          0 0 0 0 0 0
          0 0 0 0 0 0
          0 0 0 0 -0 0
          0 0 0 0 0 0
          0 0 0 0 0 0
          0 0 0 0 0 0
          0 0 0 0 0 0
          0 0 0 0 0 0
          0 0 0 0 0 0
          0 0 0 0 0 0
          0 0 0 0 0 0
          0 0 0 0 0 0
          0 0 0 0 0 0
          0 0 0 0 0 0
          -0 0 0 0 0 0
          0 0 0 0 0 0
          0 0 0 0 0 0
          0 0 0 0 0 0
          0 0 0 0 0 0
          0 0 0 0 0 0
          0 0 0 0 0 0
          0 0 0 0 0 0
          0 0 0 0 0 0
          0 0 0 0 0 0
          0 0 0 -0 0 0
          0 0 0 0 0 0
          0 0 0 0 0 0
          0 0 0 0 0 0
          0 0 0 0 0 0
          0 0 0 0 0 0
          0 0 0 0 0 0
          0 0 0 0 0 0
          0 0 0 0 0 0
          0 0 0 0 0 0
          0 0 0 0 0 0
          0 0 0 0 0 0
          0 0 0 0 0 0
          0 0 0 0 0 0
          0 0 0 0 0 0
          0 0 0 0 0 0
          0 0 0 0 0 0
          0 0 0 0 0 0
          0 0 0 0 0 0
          0 0 0 0 0 0
          0 0 0 0 0 0
          0 0 0 0 0 0
          0 0 0 0 0 0
          0 0 0 0 0 0
          0 0 0 0 0 0
          0 0 0 0 0 0
          0 0 0 0 0 0
          0 0 0 0 0 0
          0 -0 0 0 0 0
          0 0 0 0 0 0
          0 0 0 0 0 0
          0 0 0 0 0 0
          0 0 0 0 0 0
          0 0 0 0 0 0
          0 0 0 0 0 0
          0 0 0 0 0 0
          0 0 0 0 0 0
          0 0 0 0 0 0
          0 0 0 0 0 0
          0 0 0 0 0 0
          0 0 0 0 0 -0
          0 0 0 0 0 0
          0 0 0 0 0 0
          0 0 0 0 0 0
          0 0 0 0 0 0
          0 0 0 0 0 0
          0 0 0 0 0 0
          0 0 0 0 0 0
          0 0 0 0 0 0
          0 0 0 0 0 0
          0 0 0 0 0 0
          0 0 0 0 0 0
          0 0 0 0 0 0
          0 0 0 0 0 0
          0 0 0 0 0 0
          0 0 0 0 0 0
          0 0 0 0 0 0
          0 0 0 0 0 0
          0 -0 0 0 0 0
          0 0 0 0 0 0
          0 0 0 0 0 0
          0 0 0 0 0 0
          0 0 0 0 0 0
          0 0 0 0 0 0
          0 -0 0 0 0 0
          0 0 0 0 0 0
          0 0 0 0 0 0
          0 0 0 0 0 0
          0 0 0 0 0 0
          0 0 0 0 0 0
          0 0 0 0 0 0
          0 0 0 0 0 0
          0 0 0 0 0 0
          0 0 0 0 0 0
          0 0 0 0 0 0
          0 0 0 0 0 0
          0 0 0 0 0 0
          0 0 0 0 0 0
          0 0 0 0 0 0
          0 0 0 0 0 0
          0 0 0 0 0 0
          0 0 0 0 0 0
          0 0 0 0 0 0
          0 0 0 0 0 0
          0 0 0 0 0 0
          0 0 0 0 0 0
          0 0 0 0 0 0
          0 0 0 0 0 0
          0 0 0 0 0 0
          0 0 0 0 0 0
          0 0 0 0 0 0
          0 0 0 0 0 -0
          0 0 0 0 0 0
          0 0 0 0 0 0
          0 0 0 0 0 0
          0 0 0 0 0 0
          0 0 0 0 0 0
          0 0 0 0 0 0
          0 0 0 0 0 0
          0 0 0 0 0 0
          0 0 0 0 0 0
          0 0 0 0 0 0
          0 0 0 0 0 0
          0 0 0 0 0 0
          0 0 0 0 0 0
          0 0 0 0 0 0
          0 0 0 0 0 0
          0 0 0 0 0 0
          0 0 0 0 0 0
          0 0 0 0 0 0
          0 0 0 0 0 0
          0 0 0 0 0 0
          0 0 0 0 0 0
          0 0 0 0 0 0
          0 0 0 0 0 0
          0 0 0 0 0 0
          0 0 0 0 0 0
          0 0 -0 -0 0 0
          0 0 0 0 0 0
          0 0 0 0 0 0
          0 0 0 0 0 0
          0 0 0 0 0 0
          0 0 0 0 0 0
          0 0 0 0 0 0
          0 0 0 0 0 0
          0 0 0 0 0 0
          0 0 0 0 0 0
          0 0 0 0 0 0
          0 0 0 0 0 0
          0 0 0 0 0 0
          0 0 0 0 0 0
          0 0 0 0 0 0
          0 0 0 0 0 0
          0 -0 0 0 0 0
          0 0 0 0 0 0
          0 0 0 0 0 0
          0 0 0 0 0 0
          0 0 0 0 0 0
          0 0 0 0 0 0
          0 0 0 0 0 0
          0 0 0 0 0 0
          0 0 0 0 0 0
          0 0 0 0 0 0
          0 0 0 0 -0 0
          0 0 0 0 0 0
          0 0 0 0 0 0
          0 0 0 0 0 0
          0 0 0 0 0 0
          0 0 0 0 0 0
          0 0 0 0 0 0
          0 0 0 0 0 0
          0 0 0 0 0 0
          0 0 0 0 0 0
          0 0 0 0 0 0
          0 0 0 0 0 0
          0 0 0 0 0 0
          0 0 0 0 0 0
          0 0 0 0 0 0
          0 0 0 0 0 0
          0 0 0 0 0 0
          0 -0 0 0 0 0
          0 0 0 0 0 0
          0 0 0 0 0 0
          0 0 0 0 0 0
          0 0 0 0 0 0
          0 0 0 0 0 0
          0 0 0 0 0 0
          0 0 0 0 0 0
          0 0 0 0 0 0
          0 0 0 0 0 0
          0 0 0 0 0 0
          0 0 0 0 0 0
          0 0 0 0 0 0
          0 0 0 0 0 0
          0 0 0 0 0 0
          0 0 0 0 0 0
          0 0 0 0 0 0
          0 0 0 0 0 0
          0 0 0 0 0 0
          0 0 0 0 0 0
          0 0 0 0 0 0
          0 0 0 0 0 0
          0 0 0 0 0 0
          0 0 -0 0 0 0
          0 0 0 0 0 0
          0 0 0 0 0 0
          0 0 -0 0 0 0
          0 0 0 0 0 0
          -0 0 0 0 0 0
          0 0 0 0 0 0
          0 0 0 0 0 0
          0 0 0 0 0 0
          0 0 0 0 0 0
          0 0 0 0 0 -0
          0 0 0 0 0 0
          0 0 0 0 0 0
          0 -0 0 0 0 0
          -0 0 0 0 0 0
          0 0 0 0 0 0
          0 0 0 0 0 0
          0 0 0 0 0 0
          0 0 0 0 0 0
          0 0 0 0 0 0
          0 0 0 0 0 0
          0 0 0 0 0 0
          0 0 0 0 0 0
          0 0 0 0 0 0
          0 0 0 0 0 0
          0 0 0 0 0 0
          0 0 0 0 0 0
          0 0 0 0 0 0
          0 0 0 0 0 0
          0 0 0 0 -0 0
          0 0 0 0 0 0
          0 0 0 0 0 0
          0 0 0 0 0 0
          0 0 0 0 0 0
          0 0 0 0 0 0
          0 0 0 0 0 0
          0 0 0 0 0 0
          0 0 0 0 0 0
          0 0 0 0 0 0
          0 0 0 0 0 0
          0 0 0 0 0 0
          0 0 0 0 0 0
          0 0 0 0 0 0
          0 0 0 0 0 0
          0 0 0 0 0 0
          0 0 0 0 0 0
          0 0 0 0 0 0
          0 0 0 0 0 0
          0 0 0 0 0 0
          0 0 0 0 0 0
          0 0 0 0 -0 0
          0 0 0 -0 0 0
          0 0 0 0 0 0
          0 0 0 0 0 0
          0 0 0 0 0 0
          0 0 0 0 0 0
          0 0 0 0 0 0
          0 0 0 0 0 0
          0 0 0 0 0 0
          0 0 0 0 0 0
          0 0 0 -0 0 0
          0 0 0 0 0 0
          0 0 0 0 0 0
          0 0 0 0 0 0
          0 0 0 0 0 0
          0 0 0 0 0 0
          0 0 0 0 0 0
          0 0 0 0 0 0
          0 0 0 0 0 0
          0 0 0 0 0 0
          0 0 0 0 0 0
          -0 0 0 0 0 0
          0 0 0 0 0 0
          0 0 0 0 0 0
          0 0 0 0 0 0
          0 0 0 0 0 0
          0 0 0 0 0 0
          0 0 0 0 0 0
          0 0 0 0 0 0
          0 0 0 0 0 0
          0 0 0 0 0 0
          0 0 0 0 0 0
          0 0 0 0 0 0
          -0 0 0 0 0 0
          0 0 0 0 0 0
          0 0 0 0 0 -0
          0 0 0 0 0 0
          0 0 0 0 0 0
          0 0 0 0 0 0
          0 0 0 0 0 0
          0 0 0 0 0 0
          0 0 0 0 0 0
          0 0 0 0 0 0
          0 0 0 0 0 0
          0 0 0 0 0 0
          0 0 0 0 0 0
          0 0 0 0 0 0
          0 0 0 0 0 0
          0 0 0 0 0 0
          0 0 0 0 0 0
          0 0 0 0 0 0
          0 0 0 0 0 0
          0 0 0 0 0 0
          0 0 0 0 0 0
          0 0 0 0 0 0
          0 0 0 0 0 0
          0 0 0 0 0 0
          0 0 0 0 0 0
          0 0 0 0 0 0
          0 0 0 0 0 0
          0 0 0 0 0 0
          0 0 0 0 0 0
          0 0 0 0 0 0
          0 0 0 0 0 0
          0 0 0 0 0 0
          0 0 0 0 0 0
          -0 0 0 0 0 0
          0 0 0 0 0 0
          0 0 0 0 0 0
          0 0 0 0 0 0
          0 0 0 -0 0 0
          0 0 0 0 0 0
          0 0 0 0 0 0
          0 0 0 0 0 0
          0 0 0 0 0 0
          0 0 0 0 -0 0
          0 0 0 0 0 0
          0 0 0 0 0 0
          0 0 0 0 0 0
          0 0 0 0 0 0
          0 0 0 0 0 0
          0 0 0 0 0 0
          0 0 0 0 0 0
          0 0 0 0 0 0
          0 0 0 0 0 0
          0 0 0 0 0 0
          0 0 0 0 0 0
          0 0 0 0 0 0
          0 0 0 0 0 0
          0 0 0 0 0 0
          0 0 0 0 0 0
          0 0 -0 0 0 0
          0 0 0 0 0 0
          0 0 0 0 0 0
          0 0 0 0 0 0
          0 0 0 0 0 -0
          0 0 0 0 -0 0
          0 0 0 0 0 0
          0 0 0 0 0 0
          0 0 0 0 0 0
          0 0 0 0 0 0
          0 0 0 0 0 0
          -0 0 0 0 0 0
          0 0 0 0 0 0
          0 0 0 0 0 0
          0 0 0 0 0 0
          0 0 0 0 0 0
          0 0 0 0 0 0
          0 0 0 0 0 0
          0 0 0 0 0 0
          0 0 0 0 0 0
          0 0 0 0 0 0
          0 0 0 0 0 0
          0 0 0 0 0 0
          0 0 0 0 0 0
          0 0 0 0 0 0
          0 0 0 0 0 0
          0 0 0 0 0 0
          0 0 -0 -0 0 0
          0 0 0 0 0 0
          0 0 0 0 0 0
          0 0 0 0 0 0
          0 0 0 0 0 0
          0 0 0 0 0 0
          0 0 0 0 0 0
          0 0 0 0 0 0
          0 0 0 0 0 0
          0 0 0 0 0 0
          0 0 0 0 0 0
          0 0 0 0 0 0
          0 0 -0 0 0 0
          0 0 0 0 0 0
          0 0 0 0 0 0
          0 0 0 0 0 0
          0 0 0 0 0 0
          0 0 0 0 0 0
          0 0 0 0 0 0
          0 0 0 0 0 0
          0 0 0 0 0 0
          0 0 0 0 0 0
          0 0 0 0 0 0
          0 0 0 0 0 0
          0 0 0 0 0 0
          0 0 0 0 0 0
          0 0 0 0 0 0
          0 0 0 0 0 0
          0 0 0 0 0 0
          0 0 0 0 0 0
          0 0 0 0 0 0
          0 0 0 0 0 0
          0 0 0 0 0 0
          0 0 0 0 0 0
          0 0 0 0 0 0
          0 0 0 0 0 0
          0 0 0 -0 0 0
          0 0 0 0 0 0
          -0 0 0 0 0 0
          0 0 0 0 0 0
          0 0 0 0 0 0
          0 0 0 0 0 0
          0 0 -0 0 0 0
          0 0 0 0 0 0
          0 0 0 0 0 0
          0 0 0 0 0 0
          0 0 0 0 0 0
          0 0 0 0 0 0
          0 0 0 0 0 0
          0 0 0 0 0 0
          -0 0 0 0 0 0
          0 0 0 0 0 0
          0 0 0 0 0 0
          0 0 0 0 0 0
          0 0 0 0 0 0
          0 0 0 0 0 0
          0 0 0 0 0 0
          0 0 0 0 0 0
          0 -0 0 0 0 0
          0 0 0 0 -0 0
          0 0 0 -0 0 0
          0 0 0 0 0 0
          0 0 0 0 0 0
          0 0 0 0 0 0
          0 0 0 0 0 0
          0 0 0 0 0 0
          0 0 0 0 0 0
          0 0 0 0 0 0
          0 0 0 0 0 0
          0 0 0 0 0 0
          0 0 0 0 0 0
          0 0 0 0 0 0
          0 0 0 0 0 0
          0 0 0 0 0 0
          0 0 0 0 0 0
          0 0 0 0 0 0
          0 0 0 0 0 0
          0 0 0 0 0 0
          0 0 0 0 0 0
          0 0 0 0 0 0
          -0 0 0 0 0 0
          0 0 0 0 0 0
          0 0 0 0 0 0
          0 0 0 0 0 0
          0 0 0 0 0 0
          0 0 0 0 0 0
          0 0 0 0 0 0
          0 0 0 0 0 0
          0 0 0 0 0 0
          0 0 0 0 0 0
          0 0 0 0 0 0
          0 0 0 0 0 0
          0 0 0 0 0 0
          0 0 0 0 0 0
          0 0 0 0 0 0
          0 0 0 0 0 0
          0 0 0 0 0 0
          0 0 0 0 0 0
          0 0 0 0 0 0
          0 0 0 0 0 0
          0 0 0 0 0 0
          0 0 0 0 -0 0
          0 0 0 0 0 0
          0 0 0 0 0 0
          0 0 0 0 0 0
          0 0 0 0 0 0
          0 0 0 0 0 0
          0 0 0 0 0 0
          0 0 0 0 0 0
          0 0 0 0 0 0
          0 0 0 0 0 0
          0 0 0 0 0 0
          0 0 0 0 0 0
          0 0 0 0 0 0
          0 0 0 -0 0 0
          0 0 0 0 0 0
          0 0 0 0 0 0
          0 0 0 0 0 0
          0 0 0 0 0 0
          0 0 0 0 0 0
          0 0 0 0 0 0
          0 0 0 0 0 0
          -0 0 0 0 0 0
          0 0 0 0 0 0
          0 0 0 0 0 0
          0 0 0 0 0 0
          0 0 0 0 0 0
          0 0 0 0 0 0
          0 0 0 0 0 0
          0 0 0 0 0 0
          0 0 0 0 0 0
          0 0 0 0 0 0
          0 0 0 0 0 0
          0 -0 0 0 0 0
          0 0 0 0 0 0
          0 0 0 -0 0 0
          0 0 0 0 0 0
          0 0 0 0 0 0
          0 0 0 0 0 0
          0 0 0 0 0 0
          0 0 0 0 0 0
          0 0 0 0 0 0
          0 0 0 0 0 0
          0 0 0 0 0 0
          0 0 0 0 0 0
          0 0 0 0 0 0
          0 0 0 0 -0 0
          0 0 0 0 0 0
          0 0 0 0 0 0
          0 0 0 0 0 0
          0 0 0 0 0 0
          0 0 0 0 0 0
          0 0 0 0 0 0
          0 0 0 0 0 0
          0 0 0 0 0 0
          0 0 0 0 0 0
          0 0 0 0 0 0
          0 0 0 0 0 0
          0 0 0 0 0 0
          0 0 0 0 0 0
          0 0 0 0 0 0
          0 0 0 0 0 0
          0 0 0 -0 0 0
          0 0 0 0 0 0
          0 0 0 0 0 0
          0 0 0 0 0 0
          0 0 0 0 0 -0
          0 0 0 0 0 0
          0 0 0 0 0 0
          0 0 0 0 0 0
          0 0 0 0 0 0
          0 0 0 0 0 0
          0 0 0 0 0 0
          -0 0 0 0 0 0
          0 0 0 0 0 0
          0 0 0 0 0 0
          0 0 0 0 0 0
          0 0 0 0 0 0
          0 -0 0 0 0 0
          0 0 0 0 0 0
          0 0 0 0 0 0
          0 0 0 0 0 0
          0 0 0 0 0 0
          0 0 0 0 0 0
          0 0 0 0 0 0
          0 0 0 0 0 0
          0 0 0 0 0 0
          0 0 0 0 0 0
          0 0 0 0 0 0
          0 0 0 0 0 0
          0 0 0 0 0 0
          0 0 0 0 0 0
          0 0 -0 0 0 0
          0 0 0 0 0 0
          0 0 0 0 0 0
          0 0 0 0 0 0
          0 -0 0 0 0 0
          0 0 0 0 0 0
          0 0 0 0 0 0
          0 0 0 0 0 0
          0 0 0 0 0 0
          0 0 0 0 0 0
          0 0 0 0 0 0
          0 0 0 0 0 0
          0 0 0 0 0 0
          0 0 0 0 0 0
          0 0 0 0 0 0
          0 0 0 0 0 0
          0 0 0 0 0 0
          0 0 0 0 -0 0
          0 0 0 0 0 0
          0 0 0 0 0 0
          0 0 0 0 0 0
          0 0 0 0 0 0
          0 0 0 0 0 0
          -0 0 0 0 0 0
          0 0 0 0 0 0
          0 0 0 0 0 0
          0 0 0 0 0 0
          0 0 0 0 0 0
          0 0 0 0 0 0
          0 0 0 0 0 0
          0 0 0 0 0 0
          0 0 0 0 0 0
          -0 0 0 0 0 0
          0 0 0 0 0 0
          0 0 0 0 0 0
          0 0 0 0 0 0
          0 0 0 0 0 0
          0 0 0 0 0 0
          0 0 0 0 -0 0
          0 0 0 0 0 0
          0 0 0 0 0 -0
          0 0 0 0 0 0
          0 0 0 0 0 0
          0 0 0 0 0 0
          0 0 0 0 -0 0
          0 0 0 0 0 0
          0 0 0 0 0 0
          0 0 0 0 0 0
          0 0 0 0 0 0
          0 0 0 0 0 0
          0 0 0 0 0 0
          0 0 0 0 0 0
          0 0 0 0 0 0
          0 0 0 0 0 0
          0 0 0 0 0 0
          0 0 0 0 0 0
          0 0 0 0 0 0
          0 0 0 0 0 0
          0 0 0 0 0 0
          0 0 0 0 0 0
          0 0 0 0 0 0
          0 0 0 0 0 0
          0 0 0 0 0 0
          0 0 0 0 0 0
          0 0 0 0 0 0
          0 0 0 0 0 0
          0 0 0 0 0 0
          0 0 0 0 0 0
          0 0 0 0 0 0
          0 0 0 0 0 0
          0 0 0 0 0 0
          0 0 0 0 0 0
          0 0 0 -0 0 0
          0 0 0 0 0 0
          0 0 0 0 0 0
          0 0 0 0 0 0
          0 0 0 0 0 0
          0 0 0 0 0 0
          0 0 0 0 0 0
          0 0 0 0 0 0
          0 0 0 0 0 0
          0 0 0 0 0 0
          0 0 0 0 0 0
          0 0 0 0 0 0
          0 0 0 0 0 0
          0 0 0 0 0 0
          0 0 0 0 0 0
          0 0 0 0 0 0
          0 0 0 0 0 0
          0 0 0 0 0 0
          0 0 0 0 0 0
          0 0 0 0 0 0
          -0 0 0 0 0 0
          0 0 0 0 0 0
          0 0 0 0 0 0
          0 0 0 0 0 0
          0 0 0 0 0 0
          0 0 0 0 0 0
          -0 0 0 0 0 0
          0 0 0 0 0 0
          0 0 0 0 0 0
          0 0 0 0 0 0
          0 0 0 0 0 0
          0 0 0 0 0 0
          -0 0 0 0 0 0
          0 0 0 0 0 0
          0 0 0 0 0 0
          0 0 0 0 0 0
          0 0 0 0 0 0
          0 0 0 0 0 0
          0 0 0 0 0 0
          0 0 0 0 0 0
          0 0 0 0 0 0
          0 0 0 0 0 0
          0 0 0 0 0 0
          0 0 0 0 0 0
          0 0 0 0 0 0
          0 0 0 -0 0 0
          0 0 0 0 0 0
          0 0 0 0 0 0
          0 0 0 0 0 0
          0 0 0 0 0 0
          -0 0 0 0 0 0
          0 0 0 0 0 0
          0 0 0 0 0 0
          0 0 0 0 0 0
          0 0 0 0 0 0
          0 0 0 0 0 0
          0 0 0 0 0 0
          0 0 0 0 0 0
          0 0 0 0 0 0
          0 0 0 0 -0 0
          0 0 0 -0 0 0
          0 0 0 0 0 0
          0 0 0 0 0 0
          0 0 0 0 0 0
          0 0 0 0 0 0
          0 0 0 0 0 0
          0 0 0 -0 0 0
          0 0 0 0 0 0
          0 0 0 0 0 0
          0 0 0 0 0 0
          0 0 0 0 0 0
          0 0 0 0 -0 0
          0 0 0 0 0 0
          0 0 0 0 0 0
          0 0 0 0 0 0
          0 0 0 0 0 0
          0 0 0 0 0 0
          0 0 0 0 0 0
          0 0 0 0 0 0
          0 0 0 0 0 0
          0 0 0 0 0 0
          0 0 0 0 0 0
          0 0 0 0 0 0
          0 0 0 0 0 0
          0 0 0 0 0 0
          0 0 0 0 0 0
          0 0 0 0 0 0
          0 0 0 0 0 0
          0 0 0 0 0 0
          0 0 0 0 0 0
          0 0 0 0 0 0
          0 -0 0 0 0 0
          0 0 0 0 0 0
          0 0 0 0 0 0
          0 0 0 0 0 0
          0 0 0 0 0 0
          0 0 0 0 0 0
          0 0 0 0 0 0
          0 0 0 0 0 0
          0 0 0 0 0 0
          0 0 0 0 0 0
          0 0 0 0 0 0
          0 0 0 0 0 0
          0 0 0 0 0 0
          0 0 0 0 0 0
          0 0 0 0 0 0
          0 0 0 0 0 0
          -0 0 0 0 0 0
          0 0 0 -0 0 0
          0 0 0 0 0 0
          0 0 0 0 0 0
          0 0 0 0 0 0
          0 0 0 0 0 0
          0 0 0 0 -0 0
          0 0 0 0 0 0
          0 0 0 0 0 0
          0 0 0 0 0 0
          0 0 0 0 0 0
          0 0 0 0 0 0
          0 0 0 0 0 0
          0 0 0 0 0 0
          0 0 0 0 0 0
          0 0 0 0 0 0
          0 0 0 0 0 0
          0 0 0 0 0 0
          0 0 0 0 0 0
          0 0 0 0 0 0
          0 0 0 0 0 0
          0 0 0 0 -0 0
          0 0 0 0 0 0
          0 0 0 0 0 0
          0 0 0 0 0 0
          0 0 -0 0 0 0
          0 0 0 0 0 0
          0 0 0 0 0 0
          0 0 0 0 0 0
          0 0 0 0 0 0
          0 0 0 0 0 0
          0 0 0 0 0 0
          0 0 0 0 0 0
          0 0 0 0 0 0
          0 0 0 0 0 0
          0 0 0 0 0 0
          0 0 0 0 0 0
          0 0 0 -0 0 0
          0 0 0 0 0 0
          0 0 0 0 0 0
          0 0 0 0 0 0
          0 0 0 0 0 0
          0 0 0 0 -0 0
          0 0 0 -0 0 0
          0 0 0 0 0 0
          0 0 0 0 0 0
          0 0 0 -0 0 0
          0 0 0 0 0 0
          0 0 0 0 0 0
          0 0 0 0 0 0
          0 0 0 0 0 0
          0 0 0 0 0 0
          0 0 0 0 0 0
          0 0 0 0 0 0
          0 0 0 0 0 0
          0 0 -0 0 0 0
          0 0 0 0 0 0
          0 0 0 0 0 0
          0 0 0 0 0 0
          0 0 0 0 0 0
          0 0 0 0 0 0
          0 0 0 0 0 0
          0 0 0 0 0 0
          0 0 0 0 0 0
          0 0 0 0 0 0
          0 0 0 0 0 0
          0 0 0 0 0 0
          0 0 0 0 0 0
          0 0 0 0 0 0
          0 0 0 0 0 0
          0 0 0 0 0 0
          0 0 0 0 0 0
          0 0 0 0 0 0
          0 0 0 0 0 0
          0 0 0 0 0 0
          0 0 0 0 -0 0
          0 0 0 -0 0 0
          0 0 0 0 0 0
          0 0 0 0 0 0
          0 0 0 0 0 0
          0 0 0 0 0 0
          0 0 0 0 0 0
          0 0 0 0 0 0
          0 0 0 0 0 0
          0 0 0 0 0 0
          0 0 0 0 0 0
          0 -0 0 0 0 0
          0 0 0 0 0 0
          0 0 0 0 0 0
          0 0 0 0 0 0
          0 0 0 0 0 0
          0 0 0 0 0 0
          0 0 0 0 0 0
          0 0 0 0 0 0
          0 0 0 0 0 0
          0 0 0 0 0 0
          -0 0 0 0 0 0
          0 0 0 0 0 0
          0 0 0 0 0 0
          0 0 0 0 0 0
          0 0 0 0 0 0
          0 -0 0 0 0 0
          0 0 0 0 0 0
          0 0 0 0 0 0
          0 -0 0 0 0 0
          0 0 0 0 0 0
          0 0 0 0 0 0
          0 0 0 0 0 0
          0 0 0 0 0 0
          0 0 0 0 0 0
          0 0 0 0 0 0
          0 0 0 0 0 0
          0 0 0 0 0 0
          0 0 0 0 0 0
          0 0 0 0 0 0
          0 0 0 0 0 0
          0 0 0 0 0 -0
          0 0 0 0 0 0
          0 0 0 0 0 0
          0 0 0 0 0 0
          0 0 0 0 0 0
          0 0 0 0 0 0
          0 0 0 0 0 0
          0 0 0 0 0 0
          0 0 0 0 0 0
          0 0 0 0 0 0
          0 0 0 0 0 0
          0 0 0 0 0 0
          0 0 0 0 0 0
          0 0 0 0 0 0
          0 0 0 0 0 0
          0 0 0 0 0 0
          0 0 0 0 0 0
          0 0 0 0 0 0
          0 0 0 0 0 0
          0 0 0 0 0 0
          0 0 0 0 0 0
          0 0 0 0 0 0
          0 0 0 0 0 0
          0 0 0 0 0 0
          0 0 0 0 0 0
          0 0 0 0 0 0
          0 0 0 0 0 0
          0 0 0 0 0 0
          0 0 0 0 0 0
          0 0 0 0 0 0
          0 0 0 0 0 0
          0 0 0 0 0 0
          0 0 0 0 0 0
          0 0 0 0 0 0
          0 0 0 0 0 0
          0 0 0 0 0 0
          0 0 0 0 0 0
          0 0 0 0 0 0
          0 0 0 0 0 0
          0 0 0 0 0 0
          0 0 0 0 0 0
          0 0 -0 0 0 0
          0 0 0 0 0 0
          0 0 0 0 0 0
          0 0 0 0 0 0
          0 0 0 0 0 0
          0 0 0 0 0 0
          0 0 0 0 0 0
          0 0 0 0 0 0
          0 0 0 0 0 0
          0 0 0 0 0 0
          0 0 0 0 0 0
          0 0 0 0 -0 0
          0 0 0 0 0 0
          0 0 0 0 0 0
          0 0 0 0 0 0
          0 0 0 0 0 0
          0 0 0 0 0 0
          0 0 0 0 0 0
          0 0 0 0 0 0
          0 0 0 0 0 0
          0 0 0 0 0 0
          0 0 0 0 0 0
          0 0 0 0 0 0
          0 0 0 0 0 0
          0 0 0 0 0 0
          0 0 0 0 0 0
          0 0 0 0 0 0
          0 0 0 0 0 0
          0 0 0 0 0 -0
          0 0 0 0 0 0
          0 0 0 -0 -0 0
          -0 -0 0 0 0 0
          0 0 0 0 0 0
          0 0 0 0 0 0
          0 0 0 0 0 0
          0 0 0 0 0 0
          0 0 0 0 0 0
          0 0 0 0 0 0
          0 0 0 0 0 0
          0 0 0 0 0 0
          0 0 0 0 0 0
          0 0 0 0 0 0
          0 0 0 0 0 0
          0 -0 0 0 0 0
          0 0 0 0 0 0
          0 0 0 0 0 0
          0 0 0 0 0 0
          0 0 0 0 0 0
          0 0 0 0 0 0
          0 0 0 0 0 0
          0 0 0 0 0 0
          0 0 0 0 0 0
          0 0 0 0 0 0
          0 0 0 0 0 0
          0 0 0 0 0 0
          0 0 0 0 0 0
          0 0 0 0 0 0
          0 0 0 0 0 0
          0 0 0 0 0 0
          0 0 0 0 0 0
          0 0 0 0 0 0
          0 0 0 0 0 0
          0 0 0 0 0 0
          0 0 0 0 0 0
          0 0 0 0 0 0
          0 0 0 0 0 0
          0 0 0 0 0 0
          0 0 0 0 0 0
          0 0 0 0 0 0
          0 0 0 0 0 0
          0 0 0 0 0 0
          0 0 0 0 0 0
          0 0 0 0 0 0
          0 0 0 0 0 0
          0 0 0 0 0 0
          0 0 0 0 0 0
          0 0 0 0 0 0
          0 0 0 0 0 0
          0 0 0 0 0 0
          0 0 0 0 0 0
          0 0 0 0 0 0
          0 0 0 0 0 0
          0 0 0 0 0 0
          0 0 0 0 0 0
          0 0 0 0 0 0
          0 0 0 0 0 0
          0 0 0 0 0 0
          0 0 0 0 0 0
          0 -0 0 0 0 0
          0 0 0 0 0 0
          0 0 0 0 0 0
          0 0 0 0 0 0
          0 0 0 0 0 0
          0 0 0 0 0 0
          0 0 0 0 0 0
          0 0 0 0 0 0
          0 0 -0 0 0 0
          0 0 0 0 0 0
          0 0 0 0 0 0
          0 0 0 -0 0 0
          0 0 0 0 0 0
          0 0 0 0 0 0
          0 0 0 0 0 0
          0 0 0 0 0 0
          0 0 0 0 0 0
          0 0 0 0 0 0
          0 0 0 0 0 0
          0 0 0 0 0 0
          0 0 0 0 0 0
          0 0 0 0 0 0
          0 0 0 0 0 0
          0 0 0 0 0 0
          0 0 0 0 0 0
          0 0 0 0 0 0
          0 0 0 0 0 0
          0 0 0 0 0 0
          -0 0 0 0 0 0
          0 0 0 0 0 0
          0 0 0 0 0 -0
          0 0 0 0 0 0
          0 0 0 0 0 0
          0 0 0 0 0 0
          0 0 0 0 -0 0
          0 0 0 0 0 0
          0 0 0 0 0 0
          0 0 0 0 0 0
          0 0 0 0 0 0
          0 0 0 0 0 0
          0 0 0 0 0 0
          0 0 0 0 0 0
          0 0 0 0 0 0
          -0 0 0 0 0 0
          0 0 0 0 0 0
          0 0 0 0 0 0
          0 0 0 0 0 0
          0 0 0 0 0 0
          0 -0 0 0 0 0
          0 0 0 0 0 0
          0 0 0 0 0 0
          0 0 0 0 0 0
          -0 0 0 0 0 0
          0 0 0 0 0 0
          0 0 0 0 0 0
          0 0 0 0 0 0
          0 0 0 0 0 0
          0 0 0 0 0 0
          0 0 0 0 0 0
          0 0 0 0 0 0
          0 0 0 0 0 0
          0 0 0 0 0 0
          0 0 0 0 0 0
          0 0 0 0 0 0
          0 0 0 0 0 0
          0 0 0 0 0 0
          0 0 0 0 0 0
          0 0 0 0 0 0
          0 0 0 0 0 0
          0 0 0 0 0 0
          0 0 0 0 0 0
          0 0 0 0 0 0
          0 0 0 0 0 0
          0 0 0 0 -0 0
          0 0 0 0 0 0
          0 0 0 0 0 0
          0 0 0 0 0 0
          0 0 0 0 0 0
          0 0 0 0 0 0
          0 0 0 0 0 0
          0 0 0 0 0 0
          0 0 0 0 0 0
          0 0 0 0 0 0
          0 0 0 0 0 0
          0 0 0 0 0 0
          -0 0 0 0 0 0
          0 0 0 0 0 0
          0 0 0 0 0 0
          0 0 0 0 0 0
          0 0 0 0 0 0
          0 0 0 0 0 0
          0 0 0 0 0 0
          0 0 0 0 0 0
          0 0 0 0 0 0
          0 0 0 0 0 0
          0 0 0 0 0 0
          0 -0 0 0 0 0
          0 0 0 0 0 0
          0 0 0 0 0 0
          0 0 0 0 0 0
          0 0 0 0 0 0
          0 0 0 0 0 0
          0 0 0 0 0 0
          0 0 0 0 0 0
          0 0 0 0 0 0
          0 0 0 0 0 0
          0 0 0 0 0 0
          0 0 0 0 0 0
          0 0 0 0 0 0
          0 0 0 0 0 0
          0 0 0 0 0 0
          0 0 0 0 0 0
          0 0 0 0 0 0
          0 0 0 0 0 0
          0 0 0 0 0 0
          -0 0 0 0 0 0
          0 0 0 0 0 0
          0 0 0 0 0 0
          -0 0 0 0 0 0
          0 0 0 0 0 0
          0 0 0 0 0 0
          0 0 0 0 0 0
          0 0 0 0 0 0
          0 0 0 0 0 0
          0 0 0 0 0 0
          0 0 0 -0 0 0
          0 0 0 0 0 0
          0 0 0 0 0 0
          0 0 0 0 0 0
          0 0 0 0 0 0
          0 0 0 0 0 0
          0 0 0 0 0 0
          0 0 0 0 0 0
          0 0 0 0 0 0
          0 0 0 0 0 0
          0 0 0 0 0 0
          0 0 0 0 0 0
          0 0 0 -0 0 0
          0 0 0 0 0 0
          0 0 0 0 0 0
          0 0 0 0 0 0
          0 0 0 0 0 0
          0 0 0 0 0 0
          0 0 0 0 0 0
          0 0 0 0 0 0
          0 0 0 0 0 0
          0 0 0 0 0 0
          0 0 0 0 0 0
          0 0 0 0 0 0
          0 0 0 0 0 0
          0 0 0 0 0 0
          0 0 0 0 0 0
          0 0 0 0 0 0
          0 -0 0 0 0 0
          0 0 0 0 0 0
          0 0 0 -0 0 0
          0 0 0 0 0 0
          0 0 0 0 0 0
          0 0 0 0 0 0
          0 0 0 0 0 0
          0 0 0 0 0 0
          0 0 0 0 0 0
          0 0 0 0 0 0
          0 0 0 0 -0 0
          0 0 0 0 0 0
          0 0 0 0 0 -0
          0 0 0 0 0 0
          0 0 0 0 0 0
          0 0 0 0 0 0
          -0 0 0 0 0 0
          0 0 0 0 0 0
          0 0 0 0 0 0
          0 0 0 0 0 0
          0 0 0 0 0 0
          0 0 0 0 0 0
          0 0 0 0 0 0
          0 0 0 0 0 0
          0 0 0 0 0 0
          0 0 0 0 0 0
          0 0 0 0 0 0
          0 0 0 0 0 0
          0 0 0 0 0 0
          0 0 0 0 0 0
          0 0 0 0 0 0
          0 0 0 0 0 0
          0 0 0 0 0 0
          0 0 0 0 0 0
          0 0 0 0 0 0
          0 0 0 0 0 0
          0 0 0 0 0 0
          -0 0 0 0 0 0
          0 0 0 0 0 0
          0 0 0 0 0 0
          -0 0 0 0 0 0
          0 0 0 0 0 0
          0 0 0 0 0 0
          -0 0 0 0 0 0
          0 0 0 0 0 0
          0 0 0 0 0 0
          0 0 0 0 0 0
          0 0 0 0 0 0
          0 0 0 0 0 0
          0 0 0 0 0 0
          0 0 0 0 0 0
          0 -0 0 0 0 0
          0 0 0 0 0 0
          0 0 0 0 0 0
          0 0 0 0 0 0
          0 0 0 0 0 0
          0 0 0 0 0 0
          0 0 0 0 0 0
          0 0 0 0 0 0
          0 0 -0 0 0 0
          0 0 0 0 0 0
          0 0 0 0 0 0
          0 0 0 0 0 0
          0 -0 0 0 0 0
          0 0 0 0 0 0
          0 0 0 0 0 0
          0 0 0 0 0 0
          0 0 0 0 0 0
          0 0 0 0 0 0
          0 0 0 0 0 0
          0 0 0 0 0 0
          0 0 0 0 0 0
          0 0 0 0 0 0
          0 0 0 0 0 0
          0 0 0 0 0 0
          0 0 0 0 0 0
          0 0 0 0 0 0
          0 0 0 0 0 0
          0 0 0 0 0 0
          0 0 0 0 0 0
          0 0 -0 -0 0 0
          0 0 0 0 0 0
          0 0 0 0 0 0
          0 0 0 0 0 0
          0 0 0 0 0 0
          0 0 0 0 0 0
          0 0 0 0 0 0
          0 0 0 0 0 -0
          0 0 0 0 0 0
          0 0 0 0 0 0
          0 0 0 0 0 0
          0 0 0 0 0 0
          0 0 0 0 0 0
          0 0 0 0 0 0
          0 0 0 0 0 0
          0 0 0 0 0 0
          0 0 0 0 0 0
          0 0 0 0 0 0
          0 0 0 0 0 0
          0 0 0 0 0 -0
          0 0 0 0 0 0
          0 0 0 0 0 0
          0 0 0 0 0 0
          0 0 0 0 0 0
          0 0 0 0 0 0
          0 0 0 0 0 0
          0 0 0 0 0 0
          0 0 -0 0 0 0
          0 0 0 0 0 0
          0 0 0 0 0 0
          0 0 0 0 0 0
          0 -0 0 0 0 0
          0 0 0 0 0 0
          0 0 0 0 0 0
          0 0 0 0 0 0
          0 0 0 0 0 0
          0 0 0 -0 0 0
          0 0 0 0 0 0
          0 0 0 0 -0 0
          0 0 0 0 0 0
          0 0 0 0 0 0
          0 0 0 0 0 0
          0 0 0 0 0 0
          0 0 0 0 0 0
          0 0 0 0 0 0
          0 0 0 0 0 0
          0 0 0 0 0 0
          0 0 0 0 0 0
          0 0 0 0 0 0
          0 0 0 0 0 0
          0 0 0 0 0 0
          0 0 0 0 0 0
          0 0 0 0 0 0
          0 0 0 0 0 0
          0 0 0 0 0 0
          0 0 0 0 0 0
          0 0 0 0 0 0
          0 0 0 0 0 0
          0 0 0 0 0 0
          0 0 0 0 0 0
          0 0 0 0 0 0
          0 0 0 0 0 0
          0 0 0 0 0 0
          0 0 0 0 0 0
          0 0 0 0 0 0
          -0 0 0 0 0 0
          0 0 0 0 0 0
          0 0 0 0 0 0
          0 0 0 0 0 0
          0 0 0 0 0 0
          0 0 0 0 0 0
          0 0 0 0 0 0
          0 0 0 0 0 0
          0 0 0 0 0 0
          0 0 0 0 0 0
          0 0 0 0 0 0
          0 0 0 0 0 0
          0 0 0 0 0 0
          0 0 0 0 0 0
          0 0 0 0 0 0
          0 0 0 0 0 0
          0 0 0 0 0 0
          0 0 0 0 0 0
          0 0 0 0 0 0
          0 0 -0 0 0 0
          0 0 0 0 0 0
          0 0 0 0 0 0
          0 0 0 0 0 0
          0 0 0 0 0 0
          0 0 0 0 0 0
          0 0 0 0 0 0
          0 0 0 0 0 0
          0 0 0 0 0 0
          0 0 0 0 0 0
          0 0 0 0 0 0
          0 0 0 0 0 0
          0 0 0 0 0 0
          0 0 0 0 0 0
          0 0 0 0 0 0
          0 0 0 0 0 0
          0 0 0 0 0 0
          0 0 0 0 0 0
          0 0 0 -0 0 0
          0 0 0 0 0 0
          0 0 0 0 0 0
          0 0 0 0 0 0
          0 0 0 0 0 0
          0 0 0 0 0 0
          0 0 0 0 0 0
          0 0 0 0 0 0
          0 0 0 0 0 0
          0 0 0 0 0 0
          0 0 0 0 0 0
          0 0 0 0 0 0
          0 0 0 0 0 0
          0 0 0 0 0 0
          0 0 0 0 0 0
          0 0 0 0 0 0
          0 0 0 0 0 0
          0 0 0 0 0 0
          0 0 0 0 0 0
          0 0 0 0 0 0
          0 0 0 0 0 0
          0 0 0 0 0 0
          0 0 0 0 0 0
          0 0 0 0 0 0
          0 0 0 0 0 0
          0 0 0 0 0 0
          0 0 0 0 0 0
          0 0 0 0 0 0
          0 0 0 0 0 -0
          0 0 0 0 0 0
          0 0 0 0 0 0
          0 0 0 0 0 0
          0 0 0 0 0 0
          0 0 0 0 0 0
          0 0 0 0 0 0
          0 0 0 0 0 0
          0 0 0 0 0 0
          0 0 0 0 0 0
          0 0 0 0 0 0
          0 0 0 0 0 0
          0 0 0 0 0 0
          0 0 0 0 0 0
          0 0 0 0 0 0
          0 0 0 0 0 0
          0 0 0 0 0 0
          0 0 0 0 0 0
          0 0 0 0 0 0
          0 0 0 0 0 0
          0 0 0 0 0 0
          0 0 0 0 0 0
          0 0 0 0 0 0
          0 0 0 0 0 0
          0 0 0 0 0 0
          0 0 0 0 0 0
          0 0 0 0 0 0
          0 -0 0 0 0 0
          0 0 0 0 0 0
          0 0 0 0 0 0
          0 0 0 0 0 0
          0 0 0 0 0 0
          0 0 0 0 0 0
          0 0 0 0 0 0
          0 0 0 0 0 0
          0 0 0 0 0 0
          0 0 0 0 0 0
          0 0 0 0 0 0
          0 0 0 0 0 0
          0 0 0 0 0 0
          0 0 0 0 -0 0
          0 0 0 0 0 0
          0 0 0 0 0 0
          0 0 0 0 0 0
          0 0 0 0 0 0
          0 0 0 0 0 0
          0 0 0 0 0 0
          0 0 0 0 0 0
          0 0 0 0 0 0
          0 0 0 0 -0 0
          0 0 0 0 0 0
          0 0 0 0 0 0
          0 0 0 0 0 0
          0 0 0 0 0 0
          0 0 0 0 0 0
          0 0 0 0 0 0
          0 0 0 -0 0 0
          0 0 0 0 0 0
          0 0 0 0 0 0
          0 0 0 0 0 0
          0 0 0 0 0 0
          0 0 0 0 0 0
          0 0 -0 0 0 0
          0 0 0 0 0 0
          0 0 0 0 0 0
          0 0 0 0 0 0
          0 0 0 0 0 0
          0 0 0 0 0 0
          0 0 0 0 0 0
          0 0 0 0 0 0
          0 0 0 0 0 0
          0 0 0 0 0 0
          0 0 0 0 0 0
          0 0 0 0 0 0
          0 0 0 0 0 0
          0 0 0 0 0 0
          0 0 0 0 0 0
          0 0 0 0 0 0
          0 0 0 0 0 0
          0 0 0 0 0 0
          0 0 0 0 0 0
          0 0 0 0 0 0
          0 0 0 0 0 0
          0 0 0 0 0 0
          0 0 0 0 0 0
          0 0 0 0 0 0
          0 0 0 0 0 0
          0 0 0 0 0 0
          0 0 0 0 0 0
          0 0 0 0 0 0
          0 0 0 0 0 0
          -0 0 0 0 0 0
          0 0 0 0 0 0
          0 0 0 0 0 0
          0 0 0 0 0 0
          0 0 0 0 0 0
          0 0 0 0 0 0
          0 0 0 0 -0 0
          0 0 0 0 0 0
          0 0 0 0 0 0
          0 0 0 0 0 0
          0 0 0 0 0 0
          0 0 0 0 0 0
          0 0 0 0 0 0
          0 0 0 0 0 0
          0 0 0 0 0 0
          0 0 0 0 0 0
          0 0 0 0 0 0
          0 0 0 0 0 0
          0 0 0 0 0 0
          0 0 0 0 0 0
          0 0 0 0 0 0
          0 0 0 0 0 0
          0 0 0 0 0 0
          0 0 0 0 0 -0
          0 0 0 0 0 0
          0 0 0 0 0 0
          0 0 0 0 0 0
          0 0 0 0 0 0
          0 0 0 0 0 0
          0 0 0 0 0 0
          0 0 0 0 0 0
          0 0 0 0 0 0
          0 0 0 0 0 0
          0 0 0 0 0 0
          0 0 0 0 0 0
          0 0 0 0 0 0
          0 0 0 0 0 0
          0 0 0 0 0 0
          0 0 0 0 0 0
          0 0 0 0 0 0
          0 0 0 0 0 0
          0 0 0 0 0 0
          0 0 0 0 0 0
          0 0 0 0 0 0
          0 0 0 0 0 0
          -0 0 0 0 0 0
          0 0 0 0 0 0
          0 0 0 0 0 0
          0 0 0 0 0 0
          0 0 0 0 0 0
          0 0 0 0 0 0
          0 0 0 0 0 0
          0 0 0 0 0 0
          0 0 0 0 0 0
          0 0 0 0 0 0
          0 0 0 0 0 0
          0 0 0 0 0 0
          0 0 0 0 0 0
          0 0 0 0 0 0
          0 0 0 0 0 0
          0 0 0 0 0 0
          0 0 0 0 0 0
          0 0 0 0 0 0
          0 0 0 0 0 0
          0 0 0 0 0 0
          0 0 0 0 0 -0
          0 0 0 0 0 0
          0 0 0 0 0 0
          0 0 0 0 0 0
          0 0 0 0 0 0
          0 0 0 0 0 0
          0 0 0 0 0 0
          0 0 0 0 0 0
          0 0 0 0 0 0
          0 0 0 0 0 0
          0 0 0 0 0 0
          0 0 0 0 0 0
          0 0 0 0 0 0
          0 0 0 0 0 0
          0 0 0 0 0 0
          0 0 0 0 0 0
          0 0 0 0 0 0
          0 0 0 0 0 0
          0 0 0 0 0 0
          0 0 0 0 0 0
          0 0 0 0 0 0
          0 -0 0 0 0 0
          0 0 0 0 0 0
          0 0 0 0 0 0
          0 0 0 0 0 0
          0 0 0 0 0 0
          0 0 -0 0 0 0
          0 0 0 0 0 0
          0 0 0 0 0 0
          0 0 0 0 0 0
          0 0 0 0 0 0
          0 0 0 0 0 0
          0 0 0 -0 0 0
          0 0 0 0 0 0
          0 0 0 0 0 0
          0 0 0 0 0 0
          0 0 0 0 0 0
          0 0 0 0 0 0
          0 0 0 0 0 0
          0 0 0 0 0 0
          0 0 0 0 0 0
          0 0 0 0 0 0
          0 0 0 0 0 0
          0 0 0 0 0 0
          0 0 0 0 0 0
          0 0 0 0 0 0
          0 0 0 0 0 0
          0 0 0 0 0 0
          0 0 0 0 0 0
          0 0 0 0 0 0
          0 0 0 0 0 0
          0 0 0 0 0 0
          0 0 0 0 0 0
          0 0 0 0 0 0
          0 0 0 0 0 0
          0 0 0 0 0 0
          0 0 0 0 0 0
          0 0 0 0 0 0
          0 0 0 0 0 0
          0 0 0 0 0 0
          0 0 0 0 0 0
          0 0 0 0 0 0
          0 0 0 -0 0 0
          0 0 0 0 0 0
          0 0 0 0 0 0
          0 0 0 -0 0 0
          0 0 0 0 0 0
          0 0 0 0 0 0
          0 0 0 0 0 0
          0 0 0 0 0 0
          0 0 0 0 0 0
          0 0 0 0 0 0
          0 0 0 0 0 0
          0 0 0 0 0 0
          0 0 0 0 0 0
          0 0 0 0 0 0
          0 0 0 0 0 0
          0 0 0 0 0 0
          0 0 0 0 0 0
          0 0 0 0 0 0
          0 0 0 0 0 0
          0 0 0 0 0 0
          0 0 0 0 0 0
          0 0 0 0 0 0
          0 0 0 0 0 0
          0 0 0 0 0 0
          0 0 0 0 0 0
          0 0 0 0 0 0
          0 0 0 0 0 0
          0 0 0 0 0 0
          0 0 0 0 0 0
          0 0 0 0 0 0
          0 0 0 0 0 0
          0 0 0 0 0 0
          0 0 0 0 0 0
          0 0 0 0 0 0
          0 0 0 0 0 0
          0 0 0 0 0 0
          0 0 0 0 0 0
          0 0 0 0 0 0
          0 0 0 0 0 0
          0 0 0 0 0 0
          0 0 0 0 0 0
          0 0 0 0 0 0
          0 0 0 0 0 0
          0 0 0 0 0 0
          -0 0 0 0 0 0
          0 0 0 0 0 0
          0 0 0 0 0 0
          0 0 0 0 0 0
          0 0 0 0 0 0
          0 0 0 0 0 -0
          0 0 0 0 -0 0
          0 0 0 0 0 0
          0 0 0 0 0 0
          0 0 0 0 0 0
          0 0 0 0 0 0
          0 0 0 0 0 0
          0 0 0 0 0 0
          0 0 0 0 0 0
          0 0 0 0 0 0
          0 0 0 0 0 0
          0 0 0 0 0 0
          0 0 0 0 0 0
          0 0 0 0 0 0
          0 0 0 0 0 0
          0 0 0 0 0 0
          0 0 0 0 0 0
          0 0 0 0 0 0
          0 0 0 0 0 0
          0 0 0 0 0 0
          0 0 0 0 0 0
          0 0 0 0 0 0
          0 0 0 0 0 0
          0 0 0 0 0 0
          0 0 0 0 0 0
          0 0 0 0 0 0
          0 0 0 0 0 0
          0 0 0 0 0 0
          0 0 0 0 0 0
          0 0 -0 0 0 0
          0 0 0 0 0 0
          0 0 0 0 -0 0
          0 0 0 0 0 0
          0 0 0 0 0 0
          0 0 0 0 0 0
          0 0 -0 0 0 0
          0 0 0 0 0 0
          0 0 0 0 0 0
          0 0 0 0 0 0
          0 0 0 0 0 0
          0 0 0 0 0 0
          0 0 0 0 0 0
          0 -0 0 0 0 0
          0 0 0 0 0 0
          0 0 0 0 0 0
          0 0 0 0 0 0
          0 0 0 0 0 0
          0 0 0 0 0 0
          0 0 0 0 0 0
          0 0 0 0 0 0
          0 0 0 0 0 0
          0 0 0 0 0 0
          0 0 0 0 0 0
          0 0 0 0 0 0
          0 0 0 0 0 0
          0 0 0 0 0 0
          0 0 0 0 0 0
          0 0 0 0 0 0
          0 0 0 0 -0 0
          0 0 0 0 0 0
          0 -0 0 0 0 0
          0 0 0 0 0 0
          0 0 0 0 0 0
          0 0 0 0 0 0
          0 0 0 0 0 0
          0 0 0 0 0 0
          0 0 0 0 0 0
          0 0 0 0 0 0
          0 0 0 0 0 0
          0 0 0 0 0 0
          0 0 0 0 0 0
          0 0 0 0 0 0
          0 0 0 0 0 0
          0 0 0 0 0 0
          0 0 0 0 0 0
          0 0 0 0 0 0
          0 0 0 0 0 0
          0 0 0 0 0 0
          0 0 0 0 0 0
          0 0 0 0 0 0
          0 0 0 0 0 0
          0 0 0 0 0 0
          0 0 0 0 0 0
          0 0 0 0 0 0
          0 0 0 0 0 0
          0 0 0 0 0 0
          0 0 0 0 0 0
          0 0 0 0 0 0
          0 0 0 0 0 0
          0 0 0 0 0 0
          0 0 0 0 0 0
          0 0 0 0 0 0
          0 0 0 0 0 0
          0 0 0 0 0 0
          0 0 0 0 0 0
          0 0 0 0 0 0
          0 0 0 0 0 0
          0 0 0 0 0 0
          0 0 0 0 0 0
          0 0 0 0 0 0
          0 0 0 0 -0 0
          0 0 0 0 0 0
          0 0 0 0 0 0
          0 0 0 0 0 0
          0 0 0 0 0 0
          0 0 0 0 0 0
          0 0 0 0 -0 0
          0 0 0 0 0 0
          0 0 0 0 0 0
          0 0 0 0 0 0
          0 0 0 0 0 0
          0 0 0 0 0 0
          0 0 0 0 0 0
          0 0 0 -0 0 0
          0 0 0 0 0 0
          0 0 0 0 0 0
          0 0 0 0 0 0
          0 0 0 0 0 -0
          0 0 0 0 0 0
          0 0 0 0 0 0
          0 0 0 0 0 0
          0 0 0 0 0 0
          0 0 0 -0 0 0
          0 0 0 0 0 0
          0 0 0 0 0 0
          0 0 0 0 0 0
          0 0 0 0 0 0
          0 0 0 0 0 0
          0 0 0 0 0 0
          0 0 0 0 0 0
          0 0 0 0 0 0
          0 0 -0 0 0 0
          0 0 0 0 0 0
          0 0 0 0 0 0
          0 0 0 0 0 0
          0 0 0 0 0 0
          0 0 0 0 0 0
          0 0 0 0 0 0
          0 0 0 0 0 0
          0 0 0 0 0 0
          0 0 -0 0 0 0
          0 0 0 0 0 0
          0 0 0 0 0 0
          0 0 0 0 0 0
          0 0 0 0 0 0
          0 0 0 0 0 0
          0 0 0 0 0 0
          0 0 0 0 0 0
          0 0 0 0 0 0
          0 0 0 0 0 0
          0 0 0 0 0 0
          0 0 0 0 0 0
          0 0 0 0 0 0
          0 0 0 0 0 0
          0 0 0 0 0 0
          0 0 0 0 0 0
          0 0 0 0 0 0
          0 0 0 0 0 0
          0 0 0 0 0 0
          0 -0 0 0 0 0
          0 0 0 0 0 0
          0 0 0 0 0 0
          0 0 0 0 0 0
          0 0 0 0 0 0
          0 0 0 0 0 0
          0 0 0 0 0 0
          0 0 0 0 0 0
          0 0 0 0 0 0
          0 0 0 0 0 0
          -0 0 0 0 0 0
          0 0 0 0 0 0
          0 0 0 0 0 0
          0 0 0 0 0 0
          0 0 0 0 0 0
          0 0 0 0 0 0
          0 0 0 0 0 0
          0 0 0 0 0 0
          0 0 0 0 0 0
          0 0 0 0 0 0
          0 0 0 0 0 0
          0 0 0 0 0 0
          0 0 0 0 0 0
          0 0 0 0 0 0
          0 0 0 0 0 0
          0 0 0 0 0 0
          0 0 0 0 0 0
          0 0 0 0 0 0
          0 0 0 0 0 0
          0 0 0 0 0 0
          0 0 0 0 0 0
          0 0 0 0 0 0
          0 0 0 0 0 0
          0 0 0 0 0 0
          0 0 0 0 0 0
          0 0 0 0 0 0
          0 0 0 0 0 0
          0 0 0 0 0 0
          0 0 0 0 0 0
          0 0 0 0 0 0
          0 0 0 0 0 0
          0 0 0 0 0 0
          0 0 0 0 0 0
          0 0 0 0 0 0
          0 0 0 0 0 0
          0 0 0 0 0 0
          0 0 0 0 0 0
          0 0 0 0 0 0
          0 0 0 0 0 0
          0 0 0 0 0 0
          0 0 0 0 0 0
          0 0 0 0 0 0
          0 0 0 0 0 0
          0 0 0 0 0 0
          0 0 0 0 0 0
          0 0 0 0 0 0
          0 0 0 0 0 0
          0 -0 0 0 0 0
          0 0 0 0 0 0
          0 0 0 0 0 0
          0 0 0 0 0 0
          0 0 0 0 0 0
          0 0 0 0 0 0
          0 0 0 0 0 0
          0 0 0 0 0 0
          0 0 0 0 0 0
          0 0 0 0 0 -0
          0 0 0 0 0 0
          0 0 0 0 0 0
          0 0 0 0 0 0
          0 0 0 0 0 0
          0 0 0 0 0 0
          0 0 0 0 0 0
          0 0 0 0 0 0
          0 0 0 0 0 0
          0 -0 0 0 0 0
          0 0 0 0 0 0
          0 0 0 0 0 0
          0 0 0 0 0 0
          0 0 0 0 0 0
          0 0 0 0 0 0
          0 0 0 0 0 0
          0 0 0 0 0 0
          0 0 0 0 0 0
          0 0 0 0 0 -0
          0 0 0 0 0 0
          0 0 0 0 0 0
          0 0 0 0 0 0
          0 0 0 0 0 0
          0 0 0 0 0 0
          0 0 0 0 0 0
          0 0 0 0 0 0
          0 0 0 0 0 0
          0 -0 0 0 0 0
          0 0 0 0 0 0
          0 0 0 0 0 0
          0 0 0 0 0 0
          0 0 0 0 0 0
          0 0 0 0 0 0
          0 0 0 0 0 0
          0 0 0 0 0 0
          0 0 0 0 0 0
          0 0 0 0 0 0
          0 0 0 0 0 0
          0 0 0 0 0 0
          0 0 0 0 0 -0
          0 0 0 0 0 0
          0 0 0 0 0 0
          0 0 0 0 0 0
          0 0 0 0 0 0
          0 0 0 0 0 0
          0 0 0 0 0 0
          0 0 0 0 0 0
          0 0 0 0 0 0
          0 0 0 0 0 0
          0 0 0 0 -0 0
          0 0 0 0 0 0
          0 0 0 0 0 0
          0 0 0 0 0 0
          0 0 0 0 0 0
          0 0 0 0 0 0
          0 0 0 0 0 0
          0 0 0 0 0 0
          0 0 0 0 0 0
          0 0 0 0 0 0
          0 0 0 0 0 0
          0 0 0 0 0 0
          0 0 0 0 0 0
          0 0 -0 0 0 0
          0 0 0 0 0 0
          0 0 0 0 0 0
          0 0 0 0 0 0
          0 0 0 0 0 0
          0 0 0 0 0 0
          0 0 0 0 0 0
          0 0 0 0 0 0
          0 0 0 0 0 0
          0 0 0 0 0 0
          0 0 0 0 0 -0
          0 0 0 0 0 0
          0 0 0 0 0 0
          0 0 0 0 0 0
          0 0 0 0 0 0
          0 0 0 0 0 0
          0 0 0 0 0 0
          0 0 0 0 0 0
          0 0 0 0 0 0
          0 0 0 0 0 -0
          0 0 0 0 0 0
          0 0 0 0 0 0
          0 0 0 0 0 0
          0 0 0 0 0 0
          0 0 0 -0 0 0
          0 0 0 0 0 0
          0 0 0 0 0 0
          0 0 -0 -0 0 0
          0 0 0 0 0 0
          0 0 0 0 0 0
          0 0 0 0 0 0
          0 0 0 0 0 0
          0 0 0 0 0 0
          0 0 0 0 0 0
          0 0 0 0 0 0
          0 0 0 0 0 0
          0 0 0 0 0 0
          0 0 0 0 0 0
          0 0 0 0 0 0
          0 0 0 0 0 0
          0 0 0 0 0 0
          0 0 0 0 0 0
          0 0 0 0 0 0
          0 0 0 0 0 0
          -0 0 0 0 0 0
          0 0 0 0 0 0
          0 0 0 0 0 0
          0 0 0 0 0 0
          0 0 0 0 0 0
          0 0 0 0 0 0
          0 0 0 0 0 0
          0 0 0 0 0 0
          0 0 0 0 0 0
          0 0 0 0 0 0
          0 0 0 0 0 0
          0 0 0 0 0 0
          0 0 0 0 0 0
          0 0 0 0 0 0
          0 0 0 0 0 0
          0 0 0 0 0 0
          0 0 0 0 0 0
          0 0 0 0 0 0
          0 0 0 0 0 0
          0 0 -0 0 0 0
          0 0 0 0 0 0
          0 0 0 0 0 0
          0 0 0 0 0 0
          0 0 0 0 0 0
          0 0 0 0 0 0
          0 0 0 0 0 0
          0 -0 0 0 0 0
          0 0 0 0 0 0
          0 0 0 0 0 0
          0 0 0 0 0 0
          0 0 0 0 0 0
          0 0 0 0 0 0
          0 0 0 0 0 0
          0 0 0 0 0 0
          0 0 0 0 0 0
          0 0 0 0 0 0
          0 0 0 0 0 0
          0 0 0 0 0 0
          0 0 0 0 0 -0
          0 0 0 0 0 0
          0 0 0 0 0 0
          0 0 0 0 0 0
          0 0 0 0 0 0
          0 0 0 0 0 0
          0 0 0 0 0 0
          0 0 0 0 0 0
          0 0 0 0 0 0
          0 0 0 0 0 0
          0 0 0 0 0 0
          0 0 0 0 0 0
          0 0 0 0 0 0
          -0 0 0 0 0 0
          0 0 0 0 0 0
          0 0 0 0 0 0
          0 0 0 0 -0 0
          0 0 0 0 0 0
          0 0 0 0 0 0
          0 0 0 0 -0 0
          0 0 0 0 0 0
          0 0 0 0 0 0
          0 0 0 0 0 0
          0 0 0 0 0 0
          0 0 0 0 0 0
          0 0 0 0 -0 0
          0 0 0 0 0 0
          0 0 0 0 0 0
          0 0 0 0 0 0
          0 0 0 0 0 0
          0 -0 0 0 0 0
          0 0 0 0 -0 0
          0 0 0 0 0 0
          0 -0 0 0 0 0
          0 0 0 0 0 0
          0 0 0 0 0 0
          0 0 0 0 0 0
          0 0 0 0 0 0
          0 0 0 0 0 0
          0 0 0 0 0 0
          0 0 0 0 0 0
          0 0 0 0 0 0
          0 0 0 0 0 0
          -0 0 0 0 0 0
          0 0 0 0 0 0
          0 0 0 0 0 0
          0 0 0 0 0 0
          0 0 0 0 0 0
          0 0 0 0 0 -0
          0 0 0 0 0 0
          0 0 0 0 0 0
          0 0 0 0 0 0
          0 0 0 0 -0 0
          0 0 0 0 0 0
          0 0 0 0 0 0
          0 0 0 0 0 0
          0 0 0 0 0 0
          0 0 0 0 0 0
          0 0 0 0 0 0
          0 0 0 0 0 0
          0 0 0 0 0 0
          0 0 0 0 0 0
          0 0 0 0 0 0
          0 0 0 0 0 0
          0 0 0 0 0 0
          0 0 0 0 0 0
          0 0 0 0 0 0
          0 0 0 0 0 0
          0 0 -0 0 0 0
          0 0 0 0 0 0
          0 0 0 0 -0 0
          0 0 0 0 0 0
          0 0 0 0 0 0
          0 0 0 0 0 0
          0 0 0 0 0 0
          0 0 0 0 0 0
          0 0 0 0 0 0
          0 0 0 0 0 0
          0 0 0 0 0 0
          0 0 0 0 0 0
          0 0 0 0 0 0
          0 0 0 0 0 0
          0 0 0 0 0 0
          0 0 0 0 0 0
          0 0 0 0 0 0
          0 0 0 0 0 0
          0 0 0 0 0 0
          0 0 0 0 0 0
          0 0 0 0 0 0
          0 0 0 0 0 0
          0 -0 0 0 0 0
          -0 0 0 0 0 0
          0 0 0 0 0 0
          0 0 0 0 0 0
          0 0 0 0 0 0
          0 0 0 0 0 0
          0 -0 0 0 0 0
          0 0 0 0 0 0
          0 0 0 -0 0 0
          0 0 0 0 0 0
          0 0 0 0 0 0
          0 0 0 0 0 0
          0 0 0 0 0 0
          0 0 0 0 0 0
          0 0 0 0 0 0
          0 0 0 0 0 0
          0 0 0 0 0 0
          0 0 0 0 0 0
          0 0 0 0 0 0
          0 0 0 0 0 0
          0 0 0 0 0 0
          0 0 0 0 0 0
          0 0 0 0 0 0
          0 0 0 0 0 0
          0 0 0 0 0 0
          0 0 0 0 0 0
          0 0 0 -0 0 0
          0 0 0 0 0 0
          0 0 0 0 0 0
          0 0 0 0 0 0
          0 0 0 0 0 0
          0 0 0 0 0 0
          0 0 0 0 0 0
          0 0 0 0 0 0
          0 0 0 0 0 0
          0 0 0 0 0 0
          0 0 0 0 0 0
          0 0 0 0 0 0
          0 0 0 0 0 0
          0 0 0 0 0 -0
          0 0 0 0 0 0
          0 0 -0 0 0 0
          0 -0 0 0 0 0
          0 0 0 0 0 0
          0 0 0 0 0 0
          0 0 0 0 0 0
          0 0 0 0 0 0
          0 0 0 0 0 0
          0 0 0 0 0 0
          0 0 0 0 0 0
          0 0 0 0 0 0
          0 0 0 0 0 0
          0 0 0 0 0 0
          0 0 0 0 0 0
          0 0 0 0 0 0
          -0 0 0 0 0 0
          0 0 0 0 0 0
          0 0 0 0 0 0
          0 0 0 0 0 0
          0 0 0 0 0 0
          0 0 0 0 0 0
          0 0 0 0 0 0
          0 0 0 0 0 0
          0 0 0 0 0 0
          0 0 0 0 0 0
          0 0 0 0 0 0
          0 0 0 0 0 0
          0 0 0 0 0 0
          0 0 0 0 0 0
          0 0 0 0 0 0
          0 0 0 0 0 0
          0 0 0 0 0 0
          0 0 0 0 0 0
          -0 0 0 0 0 0
          0 0 0 0 0 0
          0 0 0 0 0 0
          0 0 0 0 0 0
          0 0 0 0 0 0
          0 0 0 0 0 -0
          0 0 0 0 0 0
          0 0 0 0 0 0
          0 -0 0 0 0 0
          0 0 0 0 0 0
          0 0 0 0 0 0
          0 0 0 0 0 0
          0 0 0 0 0 0
          0 0 0 -0 0 0
          0 0 0 0 0 0
          0 0 0 0 0 0
          0 0 0 -0 0 0
          0 0 0 0 0 0
          0 0 0 0 0 0
          0 0 0 0 0 0
          0 0 0 0 0 0
          0 0 0 0 0 0
          0 0 0 0 0 0
          0 0 0 0 0 0
          -0 0 0 0 0 0
          0 0 0 0 0 0
          0 0 0 0 0 0
          0 0 0 0 0 0
          0 0 0 0 0 0
          0 0 0 0 0 0
          -0 0 0 0 0 0
          0 0 0 0 0 0
          0 0 0 0 0 0
          0 0 0 0 0 0
          0 0 0 0 0 0
          0 0 0 0 0 0
          -0 0 0 0 0 0
          0 0 0 0 0 0
          0 0 0 0 0 0
          0 0 0 0 0 0
          0 0 0 0 0 0
          0 0 0 0 0 0
          0 0 0 0 0 0
          0 0 0 0 0 0
          0 0 0 0 0 0
          0 0 0 0 0 0
          0 0 0 0 0 0
          0 0 0 0 0 0
          0 0 0 0 0 0
          0 0 0 0 0 0
          0 0 0 0 0 0
          0 0 0 0 0 0
          0 0 0 -0 0 0
          0 0 0 0 0 0
          0 0 0 0 0 0
          0 0 0 0 0 0
          0 0 0 0 0 0
          0 0 0 0 0 0
          0 0 0 0 0 0
          0 0 0 0 0 0
          0 0 0 0 0 0
          0 0 0 0 0 0
          0 -0 0 0 0 0
          0 0 0 0 -0 0
          0 0 0 0 0 0
          0 0 0 0 0 -0
          -0 0 0 0 0 0
          0 0 0 0 0 0
          0 0 0 0 0 0
          0 0 0 0 0 0
          0 0 0 0 0 0
          0 0 0 0 0 0
          0 0 0 0 0 0
          0 0 0 0 0 0
          0 0 0 0 0 0
          0 0 0 0 0 0
          0 0 0 0 0 0
          0 0 0 0 0 0
          0 0 0 0 0 0
          0 0 0 0 0 0
          0 -0 0 0 0 0
          0 0 0 0 0 0
          0 0 0 0 0 0
          0 0 0 0 0 0
          0 0 0 0 0 0
          0 0 0 0 0 0
          0 0 0 0 0 0
          0 0 0 0 0 0
          0 0 0 0 0 0
          0 0 0 0 0 0
          0 0 0 0 0 0
          0 0 0 0 0 0
          0 0 0 0 0 0
          0 0 0 0 0 0
          0 0 0 0 0 0
          0 0 0 0 0 0
          0 0 0 0 0 0
          0 0 0 0 0 0
          0 0 0 0 0 0
          0 0 0 0 0 0
          0 0 0 0 0 0
          0 0 0 0 0 0
          0 0 0 0 0 0
          0 0 0 -0 0 0
          0 0 0 0 0 0
          0 0 0 0 0 0
          0 0 0 0 0 0
          0 0 0 0 0 0
          0 0 0 0 0 0
          0 0 0 0 0 0
          0 0 0 0 0 0
          0 0 0 0 0 0
          0 0 0 0 0 0
          0 0 0 0 0 0
          0 0 0 0 -0 0
          0 0 0 0 0 0
          0 0 0 0 0 0
          0 0 0 0 0 0
          0 0 0 -0 0 0
          0 0 0 0 0 0
          0 0 0 0 0 0
          0 0 0 0 0 0
          0 0 0 0 0 0
          0 0 0 0 0 0
          0 0 0 0 0 0
          0 0 0 0 0 0
          0 0 0 0 0 0
          0 0 0 0 0 0
          0 0 0 0 0 -0
          0 0 0 0 0 0
          0 0 0 0 0 0
          0 0 0 0 0 0
          0 0 0 0 0 0
          0 0 0 0 0 0
          0 0 0 0 0 0
          0 0 0 0 0 0
          0 0 0 0 0 0
          0 0 0 0 0 0
          0 0 0 0 -0 0
          0 0 0 0 0 0
          0 0 0 0 0 0
          0 0 0 0 0 0
          0 0 0 0 0 0
          0 0 0 0 0 0
          0 0 0 0 0 0
          0 0 0 0 0 0
          0 0 0 0 0 0
          0 0 0 0 0 0
          0 0 0 0 0 0
          0 0 0 0 0 0
          0 0 0 0 0 0
          0 0 0 0 0 0
          0 0 0 0 0 0
          0 0 0 0 0 0
          0 0 0 0 0 0
          0 0 0 0 0 0
          0 0 0 0 0 0
          0 0 0 0 0 0
          0 0 0 0 0 0
          0 0 0 0 0 0
          0 0 0 0 0 0
          0 0 0 0 0 0
          0 0 0 0 0 0
          0 0 0 0 0 0
          0 0 0 0 0 0
          0 0 0 0 -0 0
          0 0 0 0 0 0
          0 0 0 0 0 0
          0 0 0 0 0 0
          0 0 0 0 0 0
          0 0 0 0 0 0
          0 0 0 0 0 0
          0 0 0 0 0 0
          0 0 0 0 0 0
          0 0 0 0 0 0
          0 0 0 0 0 0
          0 0 0 0 0 0
          0 0 0 0 0 0
          0 0 0 0 0 0
          0 0 0 0 0 0
          0 0 0 0 0 0
          0 0 0 0 0 0
          0 0 0 0 0 0
          0 0 0 0 0 0
          0 0 0 0 0 0
          0 0 0 0 0 0
          0 0 0 0 0 0
          0 0 0 0 0 0
          0 0 0 0 0 0
          0 0 0 0 0 0
          0 0 0 0 0 0
          0 0 0 0 0 0
          0 0 0 0 0 0
          0 0 -0 0 0 0
          0 0 0 0 0 0
          0 0 0 0 0 0
          0 0 0 0 0 0
          0 0 0 0 0 0
          0 0 0 0 0 0
          0 0 0 0 0 0
          0 0 0 0 0 0
          0 0 0 0 0 0
          0 0 0 -0 0 0
          0 0 0 0 0 0
          0 0 0 0 0 0
          0 0 0 0 0 0
          0 0 0 0 0 0
          0 0 0 0 0 0
          0 0 0 0 0 0
          0 0 0 0 0 0
          0 0 0 0 0 0
          0 0 0 0 0 0
          0 0 0 0 0 0
          0 0 0 0 0 0
          0 0 -0 0 0 0
          0 0 0 0 0 0
          0 0 0 0 0 0
          0 0 0 0 0 0
          0 0 0 0 0 -0
          0 0 0 0 0 0
          0 0 0 0 0 0
          0 0 0 0 0 0
          0 0 0 0 0 0
          0 0 0 0 0 0
          0 0 0 0 0 0
          0 0 0 0 0 0
          0 0 0 0 0 0
          0 0 0 0 0 0
          0 0 0 0 0 0
          0 0 0 0 0 0
          0 0 0 0 0 0
          0 0 0 0 0 0
          0 0 -0 -0 0 0
          0 0 0 0 0 0
          0 0 0 0 0 0
          0 0 0 0 0 0
          0 0 0 0 0 0
          0 0 0 0 0 0
          0 0 0 0 0 0
          0 0 0 0 0 0
          0 0 0 0 -0 0
          0 0 0 0 0 0
          0 0 0 0 0 0
          0 0 0 0 0 0
          0 0 0 0 0 0
          0 0 0 0 0 0
          0 0 0 0 0 0
          0 0 0 0 0 0
          0 0 0 0 0 0
          -0 0 0 0 0 0
          0 0 0 0 0 0
          0 0 0 0 0 0
          0 0 0 0 0 0
          0 0 0 0 0 0
          0 -0 0 0 0 0
          0 0 0 0 0 0
          0 0 0 0 0 0
          0 0 0 0 0 0
          0 0 0 0 0 0
          0 0 0 0 0 0
          0 0 0 0 0 0
          0 0 0 0 0 0
          0 0 0 0 0 0
          0 0 0 0 0 0
          0 0 0 0 0 0
          0 0 0 0 0 0
          0 -0 0 0 0 0
          0 0 0 0 0 0
          0 0 0 0 0 0
          0 0 0 0 0 0
          0 0 0 0 0 0
          0 0 0 0 0 0
          0 0 0 0 0 0
          0 0 0 0 0 0
          0 0 0 0 0 0
          0 0 0 0 0 -0
          0 0 0 0 0 0
          0 0 0 0 0 0
          0 0 0 0 0 0
          0 0 0 0 -0 0
          0 0 0 0 0 0
          0 0 0 0 0 0
          0 0 0 0 0 0
          0 0 0 0 0 0
          0 0 0 0 0 0
          0 0 0 0 -0 0
          0 0 0 0 0 0
          0 0 0 0 0 0
          0 0 0 0 0 0
          0 0 0 0 0 0
          0 0 0 0 0 0
          0 0 0 0 0 0
          0 0 0 0 0 0
          0 0 0 0 0 0
          0 0 0 0 0 0
          0 0 0 0 0 0
          0 0 0 0 0 0
          0 0 0 0 0 0
          0 0 0 0 0 0
          0 0 0 0 0 0
          0 0 0 0 0 0
          0 0 0 0 0 0
          0 0 0 0 0 0
          -0 0 0 0 0 0
          0 0 0 -0 0 0
          0 0 0 0 0 0
          0 0 0 0 0 0
          0 0 0 0 0 0
          0 0 0 0 0 0
          0 0 0 0 0 0
          0 0 0 -0 0 0
          0 0 0 0 0 0
          0 0 0 0 0 0
          0 0 0 0 0 0
          0 0 0 0 0 0
          0 0 0 0 0 0
          0 0 0 0 0 0
          0 0 0 0 0 0
          0 0 0 0 0 0
          0 0 0 0 0 0
          0 0 0 0 0 0
          0 0 0 0 0 0
          0 0 0 0 0 0
          0 0 0 0 0 0
          0 0 0 0 -0 0
          0 0 0 0 0 0
          0 0 0 0 0 0
          0 0 0 0 0 0
          0 0 -0 0 0 0
          0 -0 0 0 0 0
          0 0 0 0 0 0
          0 0 0 0 0 0
          0 0 0 0 0 0
          0 0 0 0 0 0
          0 0 0 0 0 0
          0 0 0 0 0 0
          0 0 0 0 0 0
          0 0 0 0 0 0
          0 0 0 0 0 0
          0 0 0 0 0 0
          0 0 0 0 0 0
          0 0 0 0 0 0
          0 0 0 0 0 0
          0 0 0 0 0 0
          0 0 0 0 0 0
          0 0 0 0 0 0
          0 0 0 0 0 0
          0 -0 0 0 0 0
          0 0 0 0 0 0
          0 0 0 0 0 0
          0 0 0 0 0 0
          0 0 0 0 0 0
          0 0 0 0 0 0
          0 0 0 0 0 0
          0 0 0 0 0 0
          0 0 0 0 0 0
          0 0 0 0 0 0
          0 0 0 0 0 0
          0 0 0 0 0 0
          0 0 0 0 0 0
          0 0 0 0 0 0
          0 0 -0 0 0 0
          0 0 0 0 0 0
          0 0 0 0 -0 0
          0 0 0 0 0 0
          0 0 0 0 0 0
          0 0 0 0 0 0
          0 0 0 0 0 0
          0 0 0 0 0 0
          0 0 0 0 0 0
          0 0 0 0 0 0
          0 0 0 0 0 0
          0 0 0 0 -0 0
          0 0 0 0 0 0
          0 0 0 0 0 0
          0 0 0 0 0 0
          0 0 0 0 0 0
          0 0 0 0 0 0
          0 0 0 0 0 0
          0 0 0 0 0 0
          0 0 0 0 0 0
          0 0 0 0 0 0
          0 0 0 0 0 0
          0 0 0 0 0 0
          0 0 0 0 0 0
          0 0 0 0 0 0
          0 0 0 0 0 0
          0 0 0 0 0 0
          0 0 0 0 0 0
          0 0 0 0 0 0
          0 0 0 0 0 0
          0 0 0 0 0 0
          0 0 0 0 0 0
          0 0 0 0 0 0
          0 0 0 0 0 0
          0 0 0 0 0 0
          0 0 0 0 0 0
          0 0 0 0 0 0
          0 -0 0 0 0 0
          0 0 0 0 0 0
          0 0 0 0 0 0
          0 0 0 0 0 0
          0 0 0 0 0 0
          0 0 0 0 0 0
          0 0 0 0 0 0
          0 0 0 0 0 0
          0 0 0 0 0 0
          0 0 0 0 0 0
          0 0 0 0 0 0
          0 0 0 0 0 0
          0 0 0 0 0 0
          0 0 0 0 0 0
          0 0 0 0 0 0
          0 0 0 0 0 -0
          0 0 0 0 0 0
          0 0 0 0 0 0
          0 0 0 0 0 0
          0 0 0 0 0 0
          0 0 0 0 0 0
          0 0 0 0 0 -0
          0 0 0 0 0 0
          0 0 0 0 0 0
          0 0 0 0 0 0
          0 0 0 0 0 0
          0 0 0 0 0 0
          0 0 0 0 0 0
          0 0 0 0 0 0
          0 0 0 0 0 0
          0 0 0 0 0 0
          0 0 0 0 0 0
          0 0 0 0 0 0
          0 0 0 0 0 -0
          0 0 0 0 -0 0
          0 0 0 0 0 0
          0 0 0 0 0 0
          0 0 0 0 0 0
          0 0 0 0 0 0
          0 0 0 0 0 -0
          0 0 0 0 0 0
          0 0 0 0 0 0
          0 0 0 0 0 0
          0 0 0 0 0 0
          0 0 0 0 0 0
          0 0 0 0 0 0
          0 0 0 0 0 0
          0 0 0 0 0 0
          0 0 0 0 0 0
          0 0 0 0 0 0
          0 0 0 0 0 0
          0 0 0 0 0 0
          0 0 0 0 0 0
          0 0 0 0 0 0
          0 0 0 0 0 0
          0 0 0 0 0 0
          0 0 0 0 0 0
          0 0 0 0 0 0
          0 0 0 0 0 0
          0 0 0 0 0 0
          0 0 0 0 0 0
          0 0 0 0 0 0
          0 0 0 -0 0 0
          0 0 0 0 0 0
          0 0 0 0 0 0
          0 0 0 0 0 0
          0 0 0 0 0 0
          0 0 0 0 0 0
          0 0 0 0 0 0
          0 0 0 0 0 0
          0 0 0 0 0 0
          0 0 0 0 0 0
          0 0 0 0 0 0
          0 0 0 0 0 0
          0 0 0 0 0 0
          0 -0 0 0 0 0
          0 0 0 0 0 0
          0 0 0 0 0 0
          0 0 0 0 0 0
          0 0 0 0 0 0
          0 0 0 0 0 0
          0 0 0 0 0 0
          0 0 0 0 0 0
          0 0 0 0 0 0
          0 0 0 0 0 -0
          0 0 0 0 0 0
          0 0 0 0 0 0
          0 0 0 0 0 0
          -0 0 0 0 0 0
          0 0 0 0 0 0
          0 0 0 0 0 0
          0 0 0 0 0 0
          0 0 0 0 0 0
          0 0 0 0 0 0
          0 0 0 0 -0 0
          0 0 0 0 0 0
          0 0 0 0 0 0
          0 0 0 0 0 0
          0 0 0 0 0 0
          0 0 0 0 0 0
          0 0 0 0 0 0
          0 0 0 0 0 0
          0 0 0 0 0 0
          0 0 0 0 0 0
          0 0 0 0 0 0
          0 0 0 0 0 0
          0 0 0 0 0 0
          0 0 0 0 0 0
          0 0 0 0 0 0
          0 0 0 0 0 0
          0 0 -0 0 0 0
          0 0 0 0 0 0
          0 0 0 0 0 0
          0 0 0 0 0 0
          0 0 0 0 0 0
          0 0 0 0 0 0
          0 0 0 0 0 0
          0 0 0 0 0 -0
          0 0 0 0 0 0
          0 0 0 0 0 0
          0 0 0 0 0 0
          0 0 0 0 0 0
          0 0 0 0 0 0
          0 0 0 0 0 0
          0 0 0 0 0 0
          0 0 0 0 0 0
          0 0 0 0 0 0
          0 0 0 0 0 0
          0 0 0 0 0 0
          0 0 0 0 0 0
          0 0 0 0 0 0
          0 0 0 0 0 0
          0 0 0 0 0 0
          0 0 0 0 0 0
          0 0 0 0 0 0
          0 0 0 0 0 0
          0 0 0 0 0 0
          0 0 0 0 0 0
          0 0 0 0 0 0
          0 0 0 0 0 0
          0 0 0 0 0 0
          0 0 0 0 0 0
          0 0 0 0 0 0
          0 0 0 0 0 0
          0 0 0 0 0 0
          0 0 0 0 0 0
          0 0 0 0 0 0
          0 0 0 0 0 0
          0 0 0 0 0 0
          0 0 0 0 0 0
          0 0 0 0 0 0
          0 0 0 0 0 0
          0 0 0 0 0 0
          0 0 0 0 0 0
          0 0 0 0 0 0
          0 0 0 0 0 0
          0 0 0 0 0 0
          0 0 0 0 0 0
          0 0 0 0 0 0
          0 0 0 0 0 -0
          0 0 0 0 -0 0
          0 0 0 0 0 0
          0 0 0 0 0 0
          0 0 0 0 0 0
          0 0 0 0 0 0
          0 0 0 0 0 0
          0 0 0 0 0 0
          0 0 0 0 0 0
          0 0 0 0 0 0
          0 0 0 0 0 0
          0 0 -0 0 0 0
          0 0 0 0 0 0
          0 0 0 0 0 0
          0 0 0 0 0 0
          0 0 0 0 0 0
          0 0 0 0 0 0
          0 0 0 0 0 0
          0 0 0 0 0 0
          0 0 0 0 0 0
          0 0 0 0 0 0
          0 0 0 0 0 0
          0 0 0 0 0 0
          0 0 0 0 0 0
          0 0 0 0 0 0
          0 0 0 0 0 0
          0 0 0 0 0 0
          0 -0 0 0 0 0
          0 0 0 0 0 0
          0 0 0 0 0 0
          0 0 0 0 0 -0
          0 0 0 0 0 0
          0 0 0 0 0 0
          0 0 0 0 0 0
          0 0 0 0 0 0
          0 0 0 0 0 0
          0 0 0 0 0 0
          0 0 0 0 0 0
          0 0 0 0 0 0
          0 0 0 0 0 0
          0 0 0 0 0 0
          0 0 -0 0 0 0
          0 0 0 0 0 0
          0 0 0 0 0 0
          0 0 -0 0 0 0
          0 0 0 0 0 0
          -0 0 0 0 0 0
          0 0 0 0 0 0
          0 0 0 0 0 0
          0 0 0 0 0 0
          0 0 0 0 0 0
          0 0 0 0 0 0
          -0 0 0 0 0 0
          0 0 0 0 0 0
          0 -0 0 0 0 0
          0 0 0 0 0 0
          0 0 0 0 0 0
          0 0 0 0 0 0
          0 0 0 0 0 0
          0 0 0 0 0 0
          0 0 0 0 0 0
          0 0 0 0 -0 0
          0 0 0 0 0 0
          0 0 0 0 0 0
          0 0 0 0 0 0
          0 0 0 0 0 0
          0 0 0 0 0 0
          0 0 0 0 0 0
          0 0 0 0 0 0
          0 0 0 0 0 0
          0 0 0 0 0 0
          0 0 0 0 0 0
          0 0 0 0 0 0
          0 0 0 0 0 0
          0 0 0 0 0 0
          0 0 0 0 0 0
          0 0 0 0 0 0
          0 0 0 0 0 0
          0 0 0 0 0 0
          -0 0 0 0 0 0
          0 0 0 0 0 0
          0 0 0 0 0 0
          0 0 0 0 0 0
          0 0 0 0 0 0
          0 0 0 0 0 0
          0 0 0 0 0 0
          0 0 0 0 0 0
          0 0 0 0 0 0
          0 0 0 0 0 0
          0 0 0 0 0 0
          0 0 0 0 0 0
          0 0 0 0 0 0
          0 0 0 0 0 0
          0 0 0 0 0 0
          0 0 0 0 0 0
          0 0 0 0 0 0
          0 0 0 0 0 0
          0 0 0 0 0 0
          0 0 0 0 0 0
          0 0 0 0 0 0
          0 0 0 0 0 0
          0 0 0 0 0 0
          0 0 0 0 0 0
          0 0 0 0 0 0
          0 0 0 0 0 0
          0 0 0 0 0 0
          0 0 0 0 0 0
          0 0 0 0 0 0
          0 0 0 0 0 0
          0 0 0 0 0 0
          0 0 0 0 0 0
          0 0 0 0 0 0
          0 0 0 0 0 0
          0 0 0 0 0 0
          0 0 0 0 0 0
          0 0 0 0 0 0
          0 0 0 0 0 0
          0 0 0 0 0 0
          0 0 0 0 0 0
          0 0 0 0 0 0
          0 0 0 0 0 0
          0 0 0 0 0 0
          0 0 0 0 0 0
          0 0 0 0 0 0
          0 0 0 0 0 0
          0 0 0 0 0 0
          0 0 0 0 0 0
          0 0 0 0 0 0
          0 0 0 0 0 0
          0 0 0 0 0 0
          0 0 0 0 0 0
          0 0 0 0 0 0
          0 0 0 0 0 0
          0 0 0 0 0 0
          0 0 0 -0 0 0
          0 0 0 0 0 0
          0 0 0 0 0 0
          0 0 0 -0 0 0
          0 0 0 0 0 0
          0 0 0 0 0 0
          0 0 0 0 0 0
          0 0 0 0 0 0
          0 0 0 0 0 0
          0 0 0 0 0 0
          0 0 0 0 0 0
          0 0 0 0 0 0
          0 0 0 0 0 0
          0 0 0 0 0 0
          0 0 0 0 0 0
          0 0 0 0 0 0
          0 0 0 0 0 0
          0 0 0 0 0 0
          0 0 0 0 0 0
          0 0 0 0 0 0
          0 0 0 0 0 0
          0 0 0 0 0 0
          0 0 0 0 0 0
          0 0 0 0 0 0
          0 0 0 0 0 0
          0 0 0 0 0 0
          0 0 0 0 0 0
          0 0 0 0 0 0
          0 0 0 0 0 0
          0 0 0 0 0 0
          0 0 0 0 0 0
          0 0 0 0 0 0
          0 0 0 0 0 0
          0 0 0 0 0 0
          0 0 0 0 0 -0
          -0 0 0 0 0 0
          0 0 0 0 0 0
          0 0 0 0 0 0
          0 0 0 0 0 0
          0 0 0 0 0 0
          0 0 0 0 0 0
          0 0 0 0 0 0
          0 0 0 0 0 0
          0 0 0 0 0 0
          0 0 0 0 0 0
          0 0 0 0 0 0
          0 0 0 0 0 0
          0 0 0 0 0 0
          0 0 0 0 0 0
          0 0 0 0 0 0
          0 0 0 0 0 0
          0 0 0 0 0 0
          0 0 0 0 0 0
          0 0 0 0 0 0
          0 0 0 0 0 0
          0 0 0 0 0 -0
          0 0 0 0 0 0
          0 0 0 0 0 0
          0 0 0 0 0 0
          0 0 0 0 0 0
          0 0 0 0 0 0
          0 0 0 0 0 0
          0 0 0 0 0 0
          0 0 0 0 0 0
          0 0 0 0 0 0
          0 0 0 0 -0 0
          0 0 0 0 0 0
          0 0 0 0 0 0
          0 0 0 0 0 0
          0 0 0 0 0 0
          0 0 0 0 0 0
          0 0 0 0 0 0
          0 0 0 0 0 0
          0 0 0 0 0 0
          0 0 0 0 0 0
          0 0 0 0 0 0
          0 0 0 0 0 0
          0 0 0 0 0 0
          0 0 0 0 0 0
          0 0 0 0 0 -0
          0 0 0 0 0 0
          0 0 0 0 0 0
          0 0 0 0 0 0
          0 0 0 0 0 0
          0 0 0 0 0 0
          0 0 0 0 0 0
          0 0 0 0 0 0
          0 0 0 0 0 0
          0 0 0 0 0 -0
          0 0 0 0 0 0
          0 0 0 0 0 0
          0 0 0 0 0 0
          0 0 0 0 0 0
          0 0 0 0 0 0
          0 0 0 0 0 0
          0 0 0 0 0 0
          0 0 0 0 0 0
          0 0 0 0 0 0
          0 0 0 0 0 0
          0 0 0 0 0 0
          0 0 0 0 0 0
          0 0 0 0 0 0
          0 0 0
        </DataArray>
        <DataArray type="Float64" Name="vonMisesStress_forMV_lambda140000_mu50000" format="ascii" RangeMin="0" RangeMax="0">
          0 0 0 0 0 0
          0 0 0 0 0 0
          0 0 0 0 0 0
          0 0 0 0 0 0
          0 0 0 0 0 0
          0 0 0 0 0 0
          0 0 0 0 0 0
          0 0 0 0 0 0
          0 0 0 0 0 0
          0 0 0 0 0 0
          0 0 0 0 0 0
          0 0 0 0 0 0
          0 0 0 0 0 0
          0 0 0 0 0 0
          0 0 0 0 0 0
          0 0 0 0 0 0
          0 0 0 0 0 0
          0 0 0 0 0 0
          0 0 0 0 0 0
          0 0 0 0 0 0
          0 0 0 0 0 0
          0 0 0 0 0 0
          0 0 0 0 0 0
          0 0 0 0 0 0
          0 0 0 0 0 0
          0 0 0 0 0 0
          0 0 0 0 0 0
          0 0 0 0 0 0
          0 0 0 0 0 0
          0 0 0 0 0 0
          0 0 0 0 0 0
          0 0 0 0 0 0
          0 0 0 0 0 0
          0 0 0 0 0 0
          0 0 0 0 0 0
          0 0 0 0 0 0
          0 0 0 0 0 0
          0 0 0 0 0 0
          0 0 0 0 0 0
          0 0 0 0 0 0
          0 0 0 0 0 0
          0 0 0 0 0 0
          0 0 0 0 0 0
          0 0 0 0 0 0
          0 0 0 0 0 0
          0 0 0 0 0 0
          0 0 0 0 0 0
          0 0 0 0 0 0
          0 0 0 0 0 0
          0 0 0 0 0 0
          0 0 0 0 0 0
          0 0 0 0 0 0
          0 0 0 0 0 0
          0 0 0 0 0 0
          0 0 0 0 0 0
          0 0 0 0 0 0
          0 0 0 0 0 0
          0 0 0 0 0 0
          0 0 0 0 0 0
          0 0 0 0 0 0
          0 0 0 0 0 0
          0 0 0 0 0 0
          0 0 0 0 0 0
          0 0 0 0 0 0
          0 0 0 0 0 0
          0 0 0 0 0 0
          0 0 0 0 0 0
          0 0 0 0 0 0
          0 0 0 0 0 0
          0 0 0 0 0 0
          0 0 0 0 0 0
          0 0 0 0 0 0
          0 0 0 0 0 0
          0 0 0 0 0 0
          0 0 0 0 0 0
          0 0 0 0 0 0
          0 0 0 0 0 0
          0 0 0 0 0 0
          0 0 0 0 0 0
          0 0 0 0 0 0
          0 0 0 0 0 0
          0 0 0 0 0 0
          0 0 0 0 0 0
          0 0 0 0 0 0
          0 0 0 0 0 0
          0 0 0 0 0 0
          0 0 0 0 0 0
          0 0 0 0 0 0
          0 0 0 0 0 0
          0 0 0 0 0 0
          0 0 0 0 0 0
          0 0 0 0 0 0
          0 0 0 0 0 0
          0 0 0 0 0 0
          0 0 0 0 0 0
          0 0 0 0 0 0
          0 0 0 0 0 0
          0 0 0 0 0 0
          0 0 0 0 0 0
          0 0 0 0 0 0
          0 0 0 0 0 0
          0 0 0 0 0 0
          0 0 0 0 0 0
          0 0 0 0 0 0
          0 0 0 0 0 0
          0 0 0 0 0 0
          0 0 0 0 0 0
          0 0 0 0 0 0
          0 0 0 0 0 0
          0 0 0 0 0 0
          0 0 0 0 0 0
          0 0 0 0 0 0
          0 0 0 0 0 0
          0 0 0 0 0 0
          0 0 0 0 0 0
          0 0 0 0 0 0
          0 0 0 0 0 0
          0 0 0 0 0 0
          0 0 0 0 0 0
          0 0 0 0 0 0
          0 0 0 0 0 0
          0 0 0 0 0 0
          0 0 0 0 0 0
          0 0 0 0 0 0
          0 0 0 0 0 0
          0 0 0 0 0 0
          0 0 0 0 0 0
          0 0 0 0 0 0
          0 0 0 0 0 0
          0 0 0 0 0 0
          0 0 0 0 0 0
          0 0 0 0 0 0
          0 0 0 0 0 0
          0 0 0 0 0 0
          0 0 0 0 0 0
          0 0 0 0 0 0
          0 0 0 0 0 0
          0 0 0 0 0 0
          0 0 0 0 0 0
          0 0 0 0 0 0
          0 0 0 0 0 0
          0 0 0 0 0 0
          0 0 0 0 0 0
          0 0 0 0 0 0
          0 0 0 0 0 0
          0 0 0 0 0 0
          0 0 0 0 0 0
          0 0 0 0 0 0
          0 0 0 0 0 0
          0 0 0 0 0 0
          0 0 0 0 0 0
          0 0 0 0 0 0
          0 0 0 0 0 0
          0 0 0 0 0 0
          0 0 0 0 0 0
          0 0 0 0 0 0
          0 0 0 0 0 0
          0 0 0 0 0 0
          0 0 0 0 0 0
          0 0 0 0 0 0
          0 0 0 0 0 0
          0 0 0 0 0 0
          0 0 0 0 0 0
          0 0 0 0 0 0
          0 0 0 0 0 0
          0 0 0 0 0 0
          0 0 0 0 0 0
          0 0 0 0 0 0
          0 0 0 0 0 0
          0 0 0 0 0 0
          0 0 0 0 0 0
          0 0 0 0 0 0
          0 0 0 0 0 0
          0 0 0 0 0 0
          0 0 0 0 0 0
          0 0 0 0 0 0
          0 0 0 0 0 0
          0 0 0 0 0 0
          0 0 0 0 0 0
          0 0 0 0 0 0
          0 0 0 0 0 0
          0 0 0 0 0 0
          0 0 0 0 0 0
          0 0 0 0 0 0
          0 0 0 0 0 0
          0 0 0 0 0 0
          0 0 0 0 0 0
          0 0 0 0 0 0
          0 0 0 0 0 0
          0 0 0 0 0 0
          0 0 0 0 0 0
          0 0 0 0 0 0
          0 0 0 0 0 0
          0 0 0 0 0 0
          0 0 0 0 0 0
          0 0 0 0 0 0
          0 0 0 0 0 0
          0 0 0 0 0 0
          0 0 0 0 0 0
          0 0 0 0 0 0
          0 0 0 0 0 0
          0 0 0 0 0 0
          0 0 0 0 0 0
          0 0 0 0 0 0
          0 0 0 0 0 0
          0 0 0 0 0 0
          0 0 0 0 0 0
          0 0 0 0 0 0
          0 0 0 0 0 0
          0 0 0 0 0 0
          0 0 0 0 0 0
          0 0 0 0 0 0
          0 0 0 0 0 0
          0 0 0 0 0 0
          0 0 0 0 0 0
          0 0 0 0 0 0
          0 0 0 0 0 0
          0 0 0 0 0 0
          0 0 0 0 0 0
          0 0 0 0 0 0
          0 0 0 0 0 0
          0 0 0 0 0 0
          0 0 0 0 0 0
          0 0 0 0 0 0
          0 0 0 0 0 0
          0 0 0 0 0 0
          0 0 0 0 0 0
          0 0 0 0 0 0
          0 0 0 0 0 0
          0 0 0 0 0 0
          0 0 0 0 0 0
          0 0 0 0 0 0
          0 0 0 0 0 0
          0 0 0 0 0 0
          0 0 0 0 0 0
          0 0 0 0 0 0
          0 0 0 0 0 0
          0 0 0 0 0 0
          0 0 0 0 0 0
          0 0 0 0 0 0
          0 0 0 0 0 0
          0 0 0 0 0 0
          0 0 0 0 0 0
          0 0 0 0 0 0
          0 0 0 0 0 0
          0 0 0 0 0 0
          0 0 0 0 0 0
          0 0 0 0 0 0
          0 0 0 0 0 0
          0 0 0 0 0 0
          0 0 0 0 0 0
          0 0 0 0 0 0
          0 0 0 0 0 0
          0 0 0 0 0 0
          0 0 0 0 0 0
          0 0 0 0 0 0
          0 0 0 0 0 0
          0 0 0 0 0 0
          0 0 0 0 0 0
          0 0 0 0 0 0
          0 0 0 0 0 0
          0 0 0 0 0 0
          0 0 0 0 0 0
          0 0 0 0 0 0
          0 0 0 0 0 0
          0 0 0 0 0 0
          0 0 0 0 0 0
          0 0 0 0 0 0
          0 0 0 0 0 0
          0 0 0 0 0 0
          0 0 0 0 0 0
          0 0 0 0 0 0
          0 0 0 0 0 0
          0 0 0 0 0 0
          0 0 0 0 0 0
          0 0 0 0 0 0
          0 0 0 0 0 0
          0 0 0 0 0 0
          0 0 0 0 0 0
          0 0 0 0 0 0
          0 0 0 0 0 0
          0 0 0 0 0 0
          0 0 0 0 0 0
          0 0 0 0 0 0
          0 0 0 0 0 0
          0 0 0 0 0 0
          0 0 0 0 0 0
          0 0 0 0 0 0
          0 0 0 0 0 0
          0 0 0 0 0 0
          0 0 0 0 0 0
          0 0 0 0 0 0
          0 0 0 0 0 0
          0 0 0 0 0 0
          0 0 0 0 0 0
          0 0 0 0 0 0
          0 0 0 0 0 0
          0 0 0 0 0 0
          0 0 0 0 0 0
          0 0 0 0 0 0
          0 0 0 0 0 0
          0 0 0 0 0 0
          0 0 0 0 0 0
          0 0 0 0 0 0
          0 0 0 0 0 0
          0 0 0 0 0 0
          0 0 0 0 0 0
          0 0 0 0 0 0
          0 0 0 0 0 0
          0 0 0 0 0 0
          0 0 0 0 0 0
          0 0 0 0 0 0
          0 0 0 0 0 0
          0 0 0 0 0 0
          0 0 0 0 0 0
          0 0 0 0 0 0
          0 0 0 0 0 0
          0 0 0 0 0 0
          0 0 0 0 0 0
          0 0 0 0 0 0
          0 0 0 0 0 0
          0 0 0 0 0 0
          0 0 0 0 0 0
          0 0 0 0 0 0
          0 0 0 0 0 0
          0 0 0 0 0 0
          0 0 0 0 0 0
          0 0 0 0 0 0
          0 0 0 0 0 0
          0 0 0 0 0 0
          0 0 0 0 0 0
          0 0 0 0 0 0
          0 0 0 0 0 0
          0 0 0 0 0 0
          0 0 0 0 0 0
          0 0 0 0 0 0
          0 0 0 0 0 0
          0 0 0 0 0 0
          0 0 0 0 0 0
          0 0 0 0 0 0
          0 0 0 0 0 0
          0 0 0 0 0 0
          0 0 0 0 0 0
          0 0 0 0 0 0
          0 0 0 0 0 0
          0 0 0 0 0 0
          0 0 0 0 0 0
          0 0 0 0 0 0
          0 0 0 0 0 0
          0 0 0 0 0 0
          0 0 0 0 0 0
          0 0 0 0 0 0
          0 0 0 0 0 0
          0 0 0 0 0 0
          0 0 0 0 0 0
          0 0 0 0 0 0
          0 0 0 0 0 0
          0 0 0 0 0 0
          0 0 0 0 0 0
          0 0 0 0 0 0
          0 0 0 0 0 0
          0 0 0 0 0 0
          0 0 0 0 0 0
          0 0 0 0 0 0
          0 0 0 0 0 0
          0 0 0 0 0 0
          0 0 0 0 0 0
          0 0 0 0 0 0
          0 0 0 0 0 0
          0 0 0 0 0 0
          0 0 0 0 0 0
          0 0 0 0 0 0
          0 0 0 0 0 0
          0 0 0 0 0 0
          0 0 0 0 0 0
          0 0 0 0 0 0
          0 0 0 0 0 0
          0 0 0 0 0 0
          0 0 0 0 0 0
          0 0 0 0 0 0
          0 0 0 0 0 0
          0 0 0 0 0 0
          0 0 0 0 0 0
          0 0 0 0 0 0
          0 0 0 0 0 0
          0 0 0 0 0 0
          0 0 0 0 0 0
          0 0 0 0 0 0
          0 0 0 0 0 0
          0 0 0 0 0 0
          0 0 0 0 0 0
          0 0 0 0 0 0
          0 0 0 0 0 0
          0 0 0 0 0 0
          0 0 0 0 0 0
          0 0 0 0 0 0
          0 0 0 0 0 0
          0 0 0 0 0 0
          0 0 0 0 0 0
          0 0 0 0 0 0
          0 0 0 0 0 0
          0 0 0 0 0 0
          0 0 0 0 0 0
          0 0 0 0 0 0
          0 0 0 0 0 0
          0 0 0 0 0 0
          0 0 0 0 0 0
          0 0 0 0 0 0
          0 0 0 0 0 0
          0 0 0 0 0 0
          0 0 0 0 0 0
          0 0 0 0 0 0
          0 0 0 0 0 0
          0 0 0 0 0 0
          0 0 0 0 0 0
          0 0 0 0 0 0
          0 0 0 0 0 0
          0 0 0 0 0 0
          0 0 0 0 0 0
          0 0 0 0 0 0
          0 0 0 0 0 0
          0 0 0 0 0 0
          0 0 0 0 0 0
          0 0 0 0 0 0
          0 0 0 0 0 0
          0 0 0 0 0 0
          0 0 0 0 0 0
          0 0 0 0 0 0
          0 0 0 0 0 0
          0 0 0 0 0 0
          0 0 0 0 0 0
          0 0 0 0 0 0
          0 0 0 0 0 0
          0 0 0 0 0 0
          0 0 0 0 0 0
          0 0 0 0 0 0
          0 0 0 0 0 0
          0 0 0 0 0 0
          0 0 0 0 0 0
          0 0 0 0 0 0
          0 0 0 0 0 0
          0 0 0 0 0 0
          0 0 0 0 0 0
          0 0 0 0 0 0
          0 0 0 0 0 0
          0 0 0 0 0 0
          0 0 0 0 0 0
          0 0 0 0 0 0
          0 0 0 0 0 0
          0 0 0 0 0 0
          0 0 0 0 0 0
          0 0 0 0 0 0
          0 0 0 0 0 0
          0 0 0 0 0 0
          0 0 0 0 0 0
          0 0 0 0 0 0
          0 0 0 0 0 0
          0 0 0 0 0 0
          0 0 0 0 0 0
          0 0 0 0 0 0
          0 0 0 0 0 0
          0 0 0 0 0 0
          0 0 0 0 0 0
          0 0 0 0 0 0
          0 0 0 0 0 0
          0 0 0 0 0 0
          0 0 0 0 0 0
          0 0 0 0 0 0
          0 0 0 0 0 0
          0 0 0 0 0 0
          0 0 0 0 0 0
          0 0 0 0 0 0
          0 0 0 0 0 0
          0 0 0 0 0 0
          0 0 0 0 0 0
          0 0 0 0 0 0
          0 0 0 0 0 0
          0 0 0 0 0 0
          0 0 0 0 0 0
          0 0 0 0 0 0
          0 0 0 0 0 0
          0 0 0 0 0 0
          0 0 0 0 0 0
          0 0 0 0 0 0
          0 0 0 0 0 0
          0 0 0 0 0 0
          0 0 0 0 0 0
          0 0 0 0 0 0
          0 0 0 0 0 0
          0 0 0 0 0 0
          0 0 0 0 0 0
          0 0 0 0 0 0
          0 0 0 0 0 0
          0 0 0 0 0 0
          0 0 0 0 0 0
          0 0 0 0 0 0
          0 0 0 0 0 0
          0 0 0 0 0 0
          0 0 0 0 0 0
          0 0 0 0 0 0
          0 0 0 0 0 0
          0 0 0 0 0 0
          0 0 0 0 0 0
          0 0 0 0 0 0
          0 0 0 0 0 0
          0 0 0 0 0 0
          0 0 0 0 0 0
          0 0 0 0 0 0
          0 0 0 0 0 0
          0 0 0 0 0 0
          0 0 0 0 0 0
          0 0 0 0 0 0
          0 0 0 0 0 0
          0 0 0 0 0 0
          0 0 0 0 0 0
          0 0 0 0 0 0
          0 0 0 0 0 0
          0 0 0 0 0 0
          0 0 0 0 0 0
          0 0 0 0 0 0
          0 0 0 0 0 0
          0 0 0 0 0 0
          0 0 0 0 0 0
          0 0 0 0 0 0
          0 0 0 0 0 0
          0 0 0 0 0 0
          0 0 0 0 0 0
          0 0 0 0 0 0
          0 0 0 0 0 0
          0 0 0 0 0 0
          0 0 0 0 0 0
          0 0 0 0 0 0
          0 0 0 0 0 0
          0 0 0 0 0 0
          0 0 0 0 0 0
          0 0 0 0 0 0
          0 0 0 0 0 0
          0 0 0 0 0 0
          0 0 0 0 0 0
          0 0 0 0 0 0
          0 0 0 0 0 0
          0 0 0 0 0 0
          0 0 0 0 0 0
          0 0 0 0 0 0
          0 0 0 0 0 0
          0 0 0 0 0 0
          0 0 0 0 0 0
          0 0 0 0 0 0
          0 0 0 0 0 0
          0 0 0 0 0 0
          0 0 0 0 0 0
          0 0 0 0 0 0
          0 0 0 0 0 0
          0 0 0 0 0 0
          0 0 0 0 0 0
          0 0 0 0 0 0
          0 0 0 0 0 0
          0 0 0 0 0 0
          0 0 0 0 0 0
          0 0 0 0 0 0
          0 0 0 0 0 0
          0 0 0 0 0 0
          0 0 0 0 0 0
          0 0 0 0 0 0
          0 0 0 0 0 0
          0 0 0 0 0 0
          0 0 0 0 0 0
          0 0 0 0 0 0
          0 0 0 0 0 0
          0 0 0 0 0 0
          0 0 0 0 0 0
          0 0 0 0 0 0
          0 0 0 0 0 0
          0 0 0 0 0 0
          0 0 0 0 0 0
          0 0 0 0 0 0
          0 0 0 0 0 0
          0 0 0 0 0 0
          0 0 0 0 0 0
          0 0 0 0 0 0
          0 0 0 0 0 0
          0 0 0 0 0 0
          0 0 0 0 0 0
          0 0 0 0 0 0
          0 0 0 0 0 0
          0 0 0 0 0 0
          0 0 0 0 0 0
          0 0 0 0 0 0
          0 0 0 0 0 0
          0 0 0 0 0 0
          0 0 0 0 0 0
          0 0 0 0 0 0
          0 0 0 0 0 0
          0 0 0 0 0 0
          0 0 0 0 0 0
          0 0 0 0 0 0
          0 0 0 0 0 0
          0 0 0 0 0 0
          0 0 0 0 0 0
          0 0 0 0 0 0
          0 0 0 0 0 0
          0 0 0 0 0 0
          0 0 0 0 0 0
          0 0 0 0 0 0
          0 0 0 0 0 0
          0 0 0 0 0 0
          0 0 0 0 0 0
          0 0 0 0 0 0
          0 0 0 0 0 0
          0 0 0 0 0 0
          0 0 0 0 0 0
          0 0 0 0 0 0
          0 0 0 0 0 0
          0 0 0 0 0 0
          0 0 0 0 0 0
          0 0 0 0 0 0
          0 0 0 0 0 0
          0 0 0 0 0 0
          0 0 0 0 0 0
          0 0 0 0 0 0
          0 0 0 0 0 0
          0 0 0 0 0 0
          0 0 0 0 0 0
          0 0 0 0 0 0
          0 0 0 0 0 0
          0 0 0 0 0 0
          0 0 0 0 0 0
          0 0 0 0 0 0
          0 0 0 0 0 0
          0 0 0 0 0 0
          0 0 0 0 0 0
          0 0 0 0 0 0
          0 0 0 0 0 0
          0 0 0 0 0 0
          0 0 0 0 0 0
          0 0 0 0 0 0
          0 0 0 0 0 0
          0 0 0 0 0 0
          0 0 0 0 0 0
          0 0 0 0 0 0
          0 0 0 0 0 0
          0 0 0 0 0 0
          0 0 0 0 0 0
          0 0 0 0 0 0
          0 0 0 0 0 0
          0 0 0 0 0 0
          0 0 0 0 0 0
          0 0 0 0 0 0
          0 0 0 0 0 0
          0 0 0 0 0 0
          0 0 0 0 0 0
          0 0 0 0 0 0
          0 0 0 0 0 0
          0 0 0 0 0 0
          0 0 0 0 0 0
          0 0 0 0 0 0
          0 0 0 0 0 0
          0 0 0 0 0 0
          0 0 0 0 0 0
          0 0 0 0 0 0
          0 0 0 0 0 0
          0 0 0 0 0 0
          0 0 0 0 0 0
          0 0 0 0 0 0
          0 0 0 0 0 0
          0 0 0 0 0 0
          0 0 0 0 0 0
          0 0 0 0 0 0
          0 0 0 0 0 0
          0 0 0 0 0 0
          0 0 0 0 0 0
          0 0 0 0 0 0
          0 0 0 0 0 0
          0 0 0 0 0 0
          0 0 0 0 0 0
          0 0 0 0 0 0
          0 0 0 0 0 0
          0 0 0 0 0 0
          0 0 0 0 0 0
          0 0 0 0 0 0
          0 0 0 0 0 0
          0 0 0 0 0 0
          0 0 0 0 0 0
          0 0 0 0 0 0
          0 0 0 0 0 0
          0 0 0 0 0 0
          0 0 0 0 0 0
          0 0 0 0 0 0
          0 0 0 0 0 0
          0 0 0 0 0 0
          0 0 0 0 0 0
          0 0 0 0 0 0
          0 0 0 0 0 0
          0 0 0 0 0 0
          0 0 0 0 0 0
          0 0 0 0 0 0
          0 0 0 0 0 0
          0 0 0 0 0 0
          0 0 0 0 0 0
          0 0 0 0 0 0
          0 0 0 0 0 0
          0 0 0 0 0 0
          0 0 0 0 0 0
          0 0 0 0 0 0
          0 0 0 0 0 0
          0 0 0 0 0 0
          0 0 0 0 0 0
          0 0 0 0 0 0
          0 0 0 0 0 0
          0 0 0 0 0 0
          0 0 0 0 0 0
          0 0 0 0 0 0
          0 0 0 0 0 0
          0 0 0 0 0 0
          0 0 0 0 0 0
          0 0 0 0 0 0
          0 0 0 0 0 0
          0 0 0 0 0 0
          0 0 0 0 0 0
          0 0 0 0 0 0
          0 0 0 0 0 0
          0 0 0 0 0 0
          0 0 0 0 0 0
          0 0 0 0 0 0
          0 0 0 0 0 0
          0 0 0 0 0 0
          0 0 0 0 0 0
          0 0 0 0 0 0
          0 0 0 0 0 0
          0 0 0 0 0 0
          0 0 0 0 0 0
          0 0 0 0 0 0
          0 0 0 0 0 0
          0 0 0 0 0 0
          0 0 0 0 0 0
          0 0 0 0 0 0
          0 0 0 0 0 0
          0 0 0 0 0 0
          0 0 0 0 0 0
          0 0 0 0 0 0
          0 0 0 0 0 0
          0 0 0 0 0 0
          0 0 0 0 0 0
          0 0 0 0 0 0
          0 0 0 0 0 0
          0 0 0 0 0 0
          0 0 0 0 0 0
          0 0 0 0 0 0
          0 0 0 0 0 0
          0 0 0 0 0 0
          0 0 0 0 0 0
          0 0 0 0 0 0
          0 0 0 0 0 0
          0 0 0 0 0 0
          0 0 0 0 0 0
          0 0 0 0 0 0
          0 0 0 0 0 0
          0 0 0 0 0 0
          0 0 0 0 0 0
          0 0 0 0 0 0
          0 0 0 0 0 0
          0 0 0 0 0 0
          0 0 0 0 0 0
          0 0 0 0 0 0
          0 0 0 0 0 0
          0 0 0 0 0 0
          0 0 0 0 0 0
          0 0 0 0 0 0
          0 0 0 0 0 0
          0 0 0 0 0 0
          0 0 0 0 0 0
          0 0 0 0 0 0
          0 0 0 0 0 0
          0 0 0 0 0 0
          0 0 0 0 0 0
          0 0 0 0 0 0
          0 0 0 0 0 0
          0 0 0 0 0 0
          0 0 0 0 0 0
          0 0 0 0 0 0
          0 0 0 0 0 0
          0 0 0 0 0 0
          0 0 0 0 0 0
          0 0 0 0 0 0
          0 0 0 0 0 0
          0 0 0 0 0 0
          0 0 0 0 0 0
          0 0 0 0 0 0
          0 0 0 0 0 0
          0 0 0 0 0 0
          0 0 0 0 0 0
          0 0 0 0 0 0
          0 0 0 0 0 0
          0 0 0 0 0 0
          0 0 0 0 0 0
          0 0 0 0 0 0
          0 0 0 0 0 0
          0 0 0 0 0 0
          0 0 0 0 0 0
          0 0 0 0 0 0
          0 0 0 0 0 0
          0 0 0 0 0 0
          0 0 0 0 0 0
          0 0 0 0 0 0
          0 0 0 0 0 0
          0 0 0 0 0 0
          0 0 0 0 0 0
          0 0 0 0 0 0
          0 0 0 0 0 0
          0 0 0 0 0 0
          0 0 0 0 0 0
          0 0 0 0 0 0
          0 0 0 0 0 0
          0 0 0 0 0 0
          0 0 0 0 0 0
          0 0 0 0 0 0
          0 0 0 0 0 0
          0 0 0 0 0 0
          0 0 0 0 0 0
          0 0 0 0 0 0
          0 0 0 0 0 0
          0 0 0 0 0 0
          0 0 0 0 0 0
          0 0 0 0 0 0
          0 0 0 0 0 0
          0 0 0 0 0 0
          0 0 0 0 0 0
          0 0 0 0 0 0
          0 0 0 0 0 0
          0 0 0 0 0 0
          0 0 0 0 0 0
          0 0 0 0 0 0
          0 0 0 0 0 0
          0 0 0 0 0 0
          0 0 0 0 0 0
          0 0 0 0 0 0
          0 0 0 0 0 0
          0 0 0 0 0 0
          0 0 0 0 0 0
          0 0 0 0 0 0
          0 0 0 0 0 0
          0 0 0 0 0 0
          0 0 0 0 0 0
          0 0 0 0 0 0
          0 0 0 0 0 0
          0 0 0 0 0 0
          0 0 0 0 0 0
          0 0 0 0 0 0
          0 0 0 0 0 0
          0 0 0 0 0 0
          0 0 0 0 0 0
          0 0 0 0 0 0
          0 0 0 0 0 0
          0 0 0 0 0 0
          0 0 0 0 0 0
          0 0 0 0 0 0
          0 0 0 0 0 0
          0 0 0 0 0 0
          0 0 0 0 0 0
          0 0 0 0 0 0
          0 0 0 0 0 0
          0 0 0 0 0 0
          0 0 0 0 0 0
          0 0 0 0 0 0
          0 0 0 0 0 0
          0 0 0 0 0 0
          0 0 0 0 0 0
          0 0 0 0 0 0
          0 0 0 0 0 0
          0 0 0 0 0 0
          0 0 0 0 0 0
          0 0 0 0 0 0
          0 0 0 0 0 0
          0 0 0 0 0 0
          0 0 0 0 0 0
          0 0 0 0 0 0
          0 0 0 0 0 0
          0 0 0 0 0 0
          0 0 0 0 0 0
          0 0 0 0 0 0
          0 0 0 0 0 0
          0 0 0 0 0 0
          0 0 0 0 0 0
          0 0 0 0 0 0
          0 0 0 0 0 0
          0 0 0 0 0 0
          0 0 0 0 0 0
          0 0 0 0 0 0
          0 0 0 0 0 0
          0 0 0 0 0 0
          0 0 0 0 0 0
          0 0 0 0 0 0
          0 0 0 0 0 0
          0 0 0 0 0 0
          0 0 0 0 0 0
          0 0 0 0 0 0
          0 0 0 0 0 0
          0 0 0 0 0 0
          0 0 0 0 0 0
          0 0 0 0 0 0
          0 0 0 0 0 0
          0 0 0 0 0 0
          0 0 0 0 0 0
          0 0 0 0 0 0
          0 0 0 0 0 0
          0 0 0 0 0 0
          0 0 0 0 0 0
          0 0 0 0 0 0
          0 0 0 0 0 0
          0 0 0 0 0 0
          0 0 0 0 0 0
          0
        </DataArray>
      </CellData>
      <Points>
        <DataArray type="Float32" Name="Points" NumberOfComponents="3" format="ascii" RangeMin="0.13070569168" RangeMax="5.0392767252">
          2.6700599194 -0.18108099699 -0.17258299887 2.6533699036 -0.5 -0.22465799749
          2.4597499371 -0.30076900125 -0.3059630096 2.4389500618 -0.2577829957 -0.080456696451
          0.20313000679 0.30061998963 0.0047877700999 0.3682860136 0.00067014299566 0.0082637900487
          0.12687399983 0.024941600859 0.019101899117 0.25142499804 0.20395800471 0.20601199567
          -0.93832302094 -0.045258000493 0.24930199981 -0.87598198652 -0.27951401472 0.27214699984
          -0.70620900393 0.037291798741 0.28922000527 -0.74051898718 -0.13983599842 0.1276730001
          -0.36137199402 0.054711200297 -0.5 -0.46267700195 -0.020818000659 -0.27643701434
          -0.46434998512 -0.23358699679 -0.5 -0.55288797617 0.023504899815 -0.5
          1.298789978 -0.15092399716 0.16408100724 1.6828099489 -0.15067499876 0.17043499649
          1.4679900408 -0.23194299638 -0.032342601568 1.4891799688 -0.27188199759 0.26980000734
          -2.1942100525 -0.27436101437 -0.10729199648 -2.2273199558 -0.5 -0.24430799484
          -2.32543993 -0.5 -0.016557699069 -2.0754799843 -0.5 -0.065173096955
          2.4715499878 0.29645401239 0.5 2.2874000072 0.5 0.36383101344
          2.4116399288 0.33501198888 0.26824301481 2.5257198811 0.5 0.37575000525
          4.6908898354 0.5 -0.18460099399 4.5328998566 0.5 0.15708899498
          4.7387499809 0.5 0.12298899889 4.5822200775 0.29958099127 -0.0073895901442
          4.0886101723 0.063145399094 0.2613709867 3.9662399292 0.2043710053 0.5
          4.1333699226 0.29578199983 0.28484800458 4.1193199158 0.19485099614 0.5
          -3.1692500114 -0.17956000566 -0.18042400479 -3.0114998817 -0.30267500877 -0.29305499792
          -3.1629300117 -0.5 -0.34590101242 -3.1584899426 -0.5 -0.16631600261
          0.69564402103 0.31359699368 0.28978401423 0.58821898699 0.5 0.18288999796
          0.6344910264 0.5 0.40687701106 0.45764601231 0.28433001041 0.29305499792
          -4.765540123 0.29459398985 -0.015708299354 -4.514550209 0.5 -0.045017201453
          -4.5506501198 0.30194398761 0.066922001541 -4.6425299644 0.5 0.1688580066
          -1.8209400177 0.5 0.2201499939 -1.9903299809 0.30669298768 -0.0096472296864
          -1.8121700287 0.32682698965 0.085832998157 -2.0516901016 0.5 -0.021020600572
          4.1033101082 0.5 -0.16609400511 4.0785198212 0.2688550055 0.022481000051
          4.2944598198 0.20695400238 -0.17472800612 4.1898999214 0.32223001122 -0.31539100409
          1.4891799688 -0.27188199759 0.26980000734 1.298789978 -0.15092399716 0.16408100724
          1.6828099489 -0.15067499876 0.17043499649 1.4909499884 0.035039100796 0.2443370074
          -4.022600174 -0.31765198708 -0.031538199633 -4.0849199295 -0.30423098803 -0.31639400125
          -4.2221798897 -0.17677399516 -0.20671699941 -4.2342700958 -0.2943969965 -0.036790598184
          3.7846400738 -0.3112359941 -0.2879639864 3.8334798813 -0.29951399565 -0.035472199321
          3.6450901031 -0.17131699622 -0.19211299717 3.9538800716 -0.19349299371 -0.21224999428
          0.68863600492 -0.5 0.092009201646 0.58512401581 -0.18639500439 0.18318599463
          0.5135999918 -0.5 0.087553098798 0.57815998793 -0.31825500727 -0.050177000463
          1.1665500402 -0.30232200027 0.032807700336 1.3733700514 -0.33255699277 0.11544699967
          1.2443100214 -0.5 -0.079079799354 1.2694100142 -0.5 0.16097800434
          -0.17885400355 -0.17817400396 0.19088800251 -0.10500200093 -0.014513599686 0.5
          0.028599999845 -0.025005400181 0.30730199814 0.03605210036 -0.1630679965 0.5
          2.6561300755 0.37442401052 -0.5 2.4688100815 0.27537798882 -0.28756999969
          2.7815999985 0.20081700385 -0.5 2.4803700447 0.1678159982 -0.5
          -2.4949100018 0.29038199782 -0.30940899253 -2.6850099564 0.20022499561 -0.22423900664
          -2.6168899536 0.31174701452 -0.5 -2.8308899403 0.31933999062 -0.31058201194
          0.19322299957 -0.078569203615 -0.5 -0.01470979955 -0.077135197818 -0.5
          0.17147399485 -0.046462800354 -0.28626099229 0.084536299109 -0.24571800232 -0.5
          0.76386100054 -0.10622999817 0.089437901974 0.57815998793 -0.31825500727 -0.050177000463
          0.70115399361 -0.13068500161 -0.12672199309 0.58827602863 -0.023083500564 0.03204099834
          3.8265800476 -0.00065459497273 0.32086899877 3.8187499046 -0.026935700327 0.5
          3.7090001106 -0.1736509949 0.5 3.6032299995 -0.0550327003 0.29886201024
          1.1263699532 -0.31314399838 0.27022001147 1.1665500402 -0.30232200027 0.032807700336
          1.1000699997 -0.5 0.25644800067 1.2694100142 -0.5 0.16097800434
          -1.1475800276 0.23044300079 0.22876000404 -1.2430000305 0.5 0.28215000033
          -1.174579978 0.41473001242 0.5 -1.3727099895 0.30601900816 0.28291600943
          -2.3761999607 0.32358598709 -0.5 -2.6168899536 0.31174701452 -0.5
          -2.4949100018 0.29038199782 -0.30940899253 -2.471460104 0.079349301755 -0.5
          -1.1246000528 -0.21291700006 0.24169400334 -1.1855100393 -0.25224798918 -0.0140108997
          -1.1115700006 -0.5 0.061790000647 -0.94314199686 -0.25431698561 0.040656600147
          -4.237349987 -0.30583998561 0.5 -4.5071802139 -0.46488499641 0.5
          -4.1482901573 -0.5 0.45363500714 -4.3996100426 -0.5 0.31058299541
          3.2869899273 -0.28170898557 0.32561299205 3.1172299385 -0.5 0.090180002153
          3.18708992 -0.32281601429 -0.009787529707 3.1743900776 -0.18350000679 0.1536089927
          0.62789398432 -0.5 -0.19392700493 0.77619498968 -0.5 -0.05961849913
          0.68863600492 -0.5 0.092009201646 0.57815998793 -0.31825500727 -0.050177000463
          0.3679780066 0.042948998511 -0.26218301058 0.3682860136 0.00067014299566 0.0082637900487
          0.48660299182 -0.097960598767 -0.14581799507 0.27188199759 -0.21608300507 -0.19496400654
          -0.75955200195 0.2530399859 -0.5 -0.92764699459 0.27740699053 -0.26456698775
          -0.63783198595 0.084412999451 -0.319272995 -0.89940702915 0.048585001379 -0.5
          -2.9220399857 -0.26491099596 0.30408999324 -2.9412100315 -0.31262499094 -0.011466300115
          -2.962280035 -0.5 0.2204490006 -2.8101699352 -0.5 0.047830801457
          4.7783799171 -0.058915100992 0.015639599413 4.8058700562 0.17079499364 -0.0053127701394
          4.7025499344 0.19734199345 0.20103999972 4.5567698479 0.040265500546 -0.029345599934
          -1.6403199434 -0.1704210043 -0.5 -1.5297700167 -0.41840699315 -0.5
          -1.670410037 -0.23073199391 -0.21768200397 -1.4115899801 -0.27296701074 -0.5
          0.3679780066 0.042948998511 -0.26218301058 0.58461797237 0.18660899997 -0.17640599608
          0.35873600841 0.27615499496 -0.16060699522 0.49744200706 0.32136800885 -0.31016400456
          4.814139843 -0.29069000483 0.014058699831 5 -0.14510799944 -0.050927400589
          4.9067702293 -0.5 -0.13576300442 5 -0.40549901128 0.09935849905
          4.2311301231 -0.28602001071 0.30712598562 4.2926101685 0.022265100852 0.30176800489
          4.2901201248 -0.17937499285 0.5 4.1275501251 -0.15113399923 0.5
          -4.0987300873 -0.5 0.24074499309 -3.8883500099 -0.22696000338 0.22436200082
          -4.0945601463 -0.28051298857 0.31798601151 -4.022600174 -0.31765198708 -0.031538199633
          0.02034159936 -0.29206499457 -0.27554398775 -0.11357299984 -0.14485199749 -0.33142700791
          -0.014450499788 -0.12391400337 -0.11072800308 -0.18628300726 -0.26750600338 -0.029726099223
          1.6828099489 -0.15067499876 0.17043499649 1.8789199591 -0.10240700096 0.16247299314
          1.8512899876 -0.25720700622 0.29749301076 1.71875 0.012455300428 0.32105600834
          3.2171900272 0.5 -0.054951798171 2.9283499718 0.5 0.14330999553
          3.095690012 0.30450299382 0.0079884901643 2.9282898903 0.5 -0.19310599566
          0.41966900229 0.5 0.38582900167 0.25995999575 0.5 0.30666300654
          0.33892700076 0.20277099311 0.5 0.45764601231 0.28433001041 0.29305499792
          -2.4500799179 -0.18146699667 0.1914049983 -2.6128799915 0.13250499964 0.27421799302
          -2.7145900726 -0.082542397082 0.279302001 -2.6441700459 0.0031107501127 0.0051095401868
          -2.8699100018 0.034952599555 0.013808799908 -2.6850099564 0.20022499561 -0.22423900664
          -2.8308598995 0.31636199355 -0.103422001 -2.9755399227 0.12714900076 -0.1661580056
          -1.8209400177 0.5 0.2201499939 -1.9560199976 0.18910500407 0.17773799598
          -1.8168400526 0.14203999937 0.32622399926 -1.8121700287 0.32682698965 0.085832998157
          2.6889400482 0.16072399914 0.18579299748 2.6219000816 -0.015453300439 0.30282199383
          2.4395799637 -0.026134699583 0.038382198662 2.4428100586 0.10961800069 0.26388600469
          -3.5640099049 0.29994499683 -0.013255200349 -3.6554999352 0.5 -0.12951600552
          -3.7612600327 0.27116200328 0.015408799984 -3.6415400505 0.18903900683 -0.16241000593
          -2.2438600063 -0.050747901201 -0.5 -2.2611498833 -0.21604500711 -0.31563100219
          -2.1682898998 -0.037599701434 -0.23476999998 -2.0386500359 -0.018439799547 -0.5
          -0.0014522599522 0.5 -0.37516400218 -0.12616600096 0.363714993 -0.5
          -0.26246398687 0.5 -0.27721399069 -0.25742098689 0.29623898864 -0.3442530036
          -2.1403698921 -0.070216402411 0.5 -2.1791601181 0.066247500479 0.26825898886
          -2.3285899162 -0.077071398497 0.5 -2.1809399128 -0.24249899387 0.24300700426
          1.4914300442 0.0569607988 -0.04182960093 1.6074999571 0.030789300799 -0.26509699225
          1.7197300196 -0.0059337001294 -0.015229499899 1.7617299557 0.19749200344 -0.18400299549
          -3.8885200024 0.43526899815 -0.5 -3.6472799778 0.44761100411 -0.5
          -3.7156999111 0.29170098901 -0.33228498697 -3.7526800632 0.5 -0.34413599968
          -2.1809399128 -0.24249899387 0.24300700426 -2.2661499977 -0.26958799362 0.5
          -2.1087300777 -0.5 0.46349099278 -2.3618400097 -0.32881900668 0.3184300065
          -1.3727099895 0.30601900816 0.28291600943 -1.5486299992 0.27752000093 0.017110800371
          -1.4028999805 0.13422000408 0.12791000307 -1.3262499571 0.2814899981 -0.050565201789
          -0.6270070076 -0.18018999696 -0.18880400062 -0.81901800632 -0.064964897931 -0.069114297628
          -0.62403798103 0.035430200398 0.037675399333 -0.53925698996 -0.14979499578 0.041408799589
          -2.7104799747 -0.5 0.29420700669 -2.9220399857 -0.26491099596 0.30408999324
          -2.962280035 -0.5 0.2204490006 -2.8101699352 -0.5 0.047830801457
          4.7124700546 0.20787400007 -0.21475000679 4.8058700562 0.17079499364 -0.0053127701394
          4.7783799171 -0.058915100992 0.015639599413 4.5567698479 0.040265500546 -0.029345599934
          -3.4066801071 0.46902000904 -0.5 -3.2381598949 0.5 -0.3880290091
          -3.2857298851 0.5 -0.18894700706 -3.5694301128 0.5 -0.27657601237
          -1.9215400219 -0.19377499819 0.17684599757 -1.9655499458 0.017111200839 0.015656199306
          -2.187210083 -0.061865199357 0.039609499276 -2.0675001144 -0.32273799181 0.069159403443
          -2.1895999908 0.28031998873 -0.27681100368 -2.1926898956 0.17790399492 -0.5
          -2.0428700447 0.13684900105 -0.5 -1.9816099405 0.27960699797 -0.5
          -0.77074998617 -0.30250000954 -0.3132340014 -0.86342602968 -0.5 -0.2539960146
          -0.79164099693 -0.5 -0.074961297214 -0.59884798527 -0.5 -0.081100203097
          0.7291790247 -0.29900100827 0.29153800011 0.58512401581 -0.18639500439 0.18318599463
          0.75085902214 -0.045475300401 0.28253901005 0.68295001984 -0.13473699987 0.5
          -2.7625899315 -0.27350199223 0.5 -2.7791500092 -0.49004599452 0.5
          -2.6140599251 -0.2892279923 0.31681698561 -2.7104799747 -0.5 0.29420700669
          -3.0562400818 -0.17835299671 0.5 -3.2471899986 -0.22948899865 0.5
          -3.1145401001 -0.33741301298 0.5 -3.1171200275 -0.32041800022 0.23436300457
          -3.5974299908 0.015700999647 0.0042460002005 -3.8034300804 0.010254199617 -0.24826699495
          -3.8818199635 0.0094203203917 -0.0044903801754 -3.6039199829 -0.1486119926 -0.1880979985
          1.9245300293 -0.27816799283 0.073713801801 2.0752000809 -0.5 0.1838440001
          2.1369900703 -0.5 -0.054951798171 1.8255000114 -0.5 0.10807599872
          4.625770092 0.13625299931 0.5 4.6531600952 0.31911000609 0.5
          4.7025499344 0.19734199345 0.20103999972 4.8295898438 0.25321400166 0.5
          -1.9607599974 -0.22289100289 0.5 -2.0053899288 -0.31090599298 0.32138600945
          -1.9215400219 -0.19377499819 0.17684599757 -1.9649800062 -0.0049698902294 0.29592001438
          -4.2490501404 -0.32240501046 -0.5 -4.0849199295 -0.30423098803 -0.31639400125
          -4.1110301018 -0.5 -0.40642899275 -4.2746400833 -0.5 -0.25492700934
          -4.7982001305 -0.27365100384 -0.020341299474 -4.9761099815 -0.5 -0.16763499379
          -5 -0.39700898528 0.035171099007 -4.7693600655 -0.5 -0.069937601686
          -0.30496299267 0.34233599901 -0.13862299919 -0.28813400865 0.5 -0.011587300338
          -0.47131600976 0.32570299506 -0.023170199245 -0.43139898777 0.5 -0.15948499739
          1.71875 0.012455300428 0.32105600834 1.6337100267 -0.2680259943 0.5
          1.6828099489 -0.15067499876 0.17043499649 1.5849699974 -0.077601596713 0.5
          0.20413899422 0.23499399424 -0.5 0.3679780066 0.042948998511 -0.26218301058
          0.38934001327 0.21350599825 -0.5 0.19322299957 -0.078569203615 -0.5
          2.8473100662 0.22374899685 0.5 2.9353599548 0.054025001824 0.25657498837
          3.0548899174 -0.0057386700064 0.5 3.0071001053 0.30889099836 0.30772000551
          5 -0.41344600916 0.33176600933 4.8925499916 -0.35197499394 0.5
          4.742000103 -0.5 0.47397199273 4.8184399605 -0.5 0.27545198798
          -4.8052501678 -0.030253799632 0.27854898572 -5 0.15884299576 0.21330599487
          -4.8773698807 0.1690479964 0.5 -5 0.07584580034 0.38386198878
          -0.53887498379 -0.034443799406 0.20534600317 -0.54225701094 0.182366997 0.5
          -0.70620900393 0.037291798741 0.28922000527 -0.55149698257 0.19303299487 0.18695600331
          2.4395799637 -0.026134699583 0.038382198662 2.1986699104 0.16770100594 0.18445199728
          2.4481799603 0.24948500097 0.0013240700355 2.4428100586 0.10961800069 0.26388600469
          1.6828099489 -0.15067499876 0.17043499649 1.9245300293 -0.27816799283 0.073713801801
          1.8512899876 -0.25720700622 0.29749301076 1.8789199591 -0.10240700096 0.16247299314
          4.3140602112 -0.30338901281 0.040695600212 4.4824900627 -0.2778429985 0.28902798891
          4.4995098114 -0.5 0.058421999216 4.296959877 -0.5 0.12259899825
          0.3679780066 0.042948998511 -0.26218301058 0.14069800079 0.16885900497 -0.17604699731
          0.3682860136 0.00067014299566 0.0082637900487 0.12687399983 0.024941600859 0.019101899117
          -3.606400013 -0.5 0.29930099845 -3.7172999382 -0.46028399467 0.5
          -3.5468900204 -0.30179598927 0.5 -3.4625499249 -0.5 0.46369299293
          -0.38922300935 -0.43621999025 -0.5 -0.47420999408 -0.29338499904 -0.29220598936
          -0.46434998512 -0.23358699679 -0.5 -0.29398798943 -0.19200000167 -0.2282319963
          -0.30116099119 -0.5 -0.18737800419 -0.48361599445 -0.5 -0.22838500142
          -0.42740899324 -0.30482000113 -0.02907329984 -0.59884798527 -0.5 -0.081100203097
          1.9245300293 -0.27816799283 0.073713801801 1.8255000114 -0.5 0.10807599872
          2.1369900703 -0.5 -0.054951798171 1.8100399971 -0.5 -0.073667302728
          -3.2138299942 0.5 0.12549799681 -3.3868999481 0.28687500954 0.25560098886
          -3.3652899265 0.29221200943 0.018539199606 -3.475399971 0.5 0.31425100565
          -3.353219986 0.018101999536 -0.0069937198423 -3.6039199829 -0.1486119926 -0.1880979985
          -3.4054200649 -0.24873800576 -0.029902800918 -3.387419939 -0.020452000201 -0.26496699452
          0.76468199492 0.37051400542 0.5 0.7305060029 0.19254399836 0.5
          0.69564402103 0.31359699368 0.28978401423 0.57046198845 0.31609800458 0.5
          3.4506099224 -0.25270500779 -0.04623780027 3.5628299713 -0.5 -0.19047999382
          3.4532198906 -0.27570098639 -0.28086999059 3.3585400581 -0.5 -0.16122399271
          2.9692099094 -0.18215200305 0.27709600329 2.9252800941 -0.5 0.11620400101
          3.0828099251 -0.5 0.29510200024 2.94404006 -0.24824899435 0.048307999969
          3.9538800716 -0.19349299371 -0.21224999428 3.7685399055 -0.11422099918 -0.34736299515
          3.9156999588 -0.083973996341 -0.5 3.9046399593 0.029231099412 -0.28819599748
          1.2041200399 0.21308499575 -0.18568199873 1.4914300442 0.0569607988 -0.04182960093
          1.4356100559 0.30725300312 0.014958400279 1.4860899448 0.23913800716 -0.2658199966
          4.4999699593 -0.30107301474 -0.267922014 4.8028302193 -0.29806599021 -0.33157899976
          4.7140798569 -0.5 -0.1463650018 4.6962199211 -0.21809899807 -0.17522199452
          -4.7982001305 -0.27365100384 -0.020341299474 -5 -0.39700898528 0.035171099007
          -4.8312702179 -0.5 0.1501930058 -4.7693600655 -0.5 -0.069937601686
          2.9283499718 0.5 0.14330999553 2.8141000271 0.33296000957 0.21601100266
          2.8604700565 0.28147599101 -0.024887500331 2.6540100574 0.30316799879 0.029222900048
          -3.6169199944 0.2079769969 -0.5 -3.7646200657 -0.015583699569 -0.5
          -3.5893199444 0.032997198403 -0.29434099793 -3.5521500111 0.0046129701659 -0.5
          -3.6202099323 -0.16945900023 0.16224400699 -3.8883500099 -0.22696000338 0.22436200082
          -3.776599884 -0.0024208100513 0.27819898725 -3.7068300247 -0.31349000335 0.29142400622
          2.0716900826 -0.38688901067 0.5 1.8518699408 -0.5 0.28856000304
          2.0752000809 -0.5 0.1838440001 2.0565500259 -0.31903299689 0.2972239852
          3.678839922 -0.28315201402 0.29635599256 3.7090001106 -0.1736509949 0.5
          3.841520071 -0.36154899001 0.5 3.6408600807 -0.47381699085 0.5
          -1.1246000528 -0.21291700006 0.24169400334 -1.2071299553 -0.056219801307 0.5
          -0.93832302094 -0.045258000493 0.24930199981 -0.93892097473 -0.041356798261 0.5
          4.2311301231 -0.28602001071 0.30712598562 4.3434801102 -0.13885499537 0.17381000519
          4.3140602112 -0.30338901281 0.040695600212 4.4824900627 -0.2778429985 0.28902798891
          -0.75955200195 0.2530399859 -0.5 -0.92764699459 0.27740699053 -0.26456698775
          -0.68140697479 0.28639298677 -0.28938999772 -0.63783198595 0.084412999451 -0.319272995
          0.58827602863 -0.023083500564 0.03204099834 0.80673497915 0.05526150018 -0.040332399309
          0.70115399361 -0.13068500161 -0.12672199309 0.76386100054 -0.10622999817 0.089437901974
          -4.513229847 -0.036582600325 0.5 -4.5459198952 -0.24766799808 0.5
          -4.3030099869 0.0012274599867 0.5 -4.3976202011 -0.16255900264 0.25912800431
          -2.011950016 0.41811999679 0.5 -2.0332100391 0.28143399954 0.34608799219
          -2.1011199951 0.16092300415 0.5 -1.8413699865 0.28546500206 0.5
          -3.606400013 -0.5 0.29930099845 -3.7068300247 -0.31349000335 0.29142400622
          -3.4786798954 -0.29719600081 0.28423199058 -3.5468900204 -0.30179598927 0.5
          -0.74051898718 -0.13983599842 0.1276730001 -0.81901800632 -0.064964897931 -0.069114297628
          -0.78096401691 -0.28885498643 -0.091540999711 -0.53925698996 -0.14979499578 0.041408799589
          3.4290299416 -0.5 -0.34937500954 3.4532198906 -0.27570098639 -0.28086999059
          3.2248399258 -0.5 -0.3111949861 3.190030098 -0.22524799407 -0.5
          -2.2189500332 0.32305899262 0.5 -2.2944800854 0.10816299915 0.5
          -2.1011199951 0.16092300415 0.5 -2.2191998959 0.31082698703 0.26025301218
          0.37961798906 -0.27483201027 0.3045360148 0.3798109889 -0.11770299822 0.17650899291
          0.58512401581 -0.18639500439 0.18318599463 0.47176000476 -0.12052799761 0.5
          2.3215301037 -0.5 0.19653899968 2.2314100266 -0.30056801438 0.0065283500589
          2.1369900703 -0.5 -0.054951798171 2.3607499599 -0.5 -0.025692699477
          -3.8818199635 0.0094203203917 -0.0044903801754 -4.1479997635 0.1524810046 0.18773500621
          -4.0238199234 -0.033451199532 0.28527000546 -4.0997099876 -0.04042249918 -0.065122202039
          -2.4248900414 -0.10110799968 -0.5 -2.5989000797 -0.16783699393 -0.5
          -2.6364200115 -0.0513737984 -0.25086298585 -2.4208400249 -0.17098300159 -0.17608100176
          -1.0172100067 0.25485399365 -0.020222399384 -1.2951300144 0.045372098684 -0.065485596657
          -1.1475800276 0.23044300079 0.22876000404 -1.0750999451 -0.011404699646 0.007108009886
          -0.62944000959 0.5 0.34010401368 -0.46542999148 0.5 0.387439996
          -0.54225701094 0.182366997 0.5 -0.67730498314 0.46419098973 0.5
          -0.22633899748 -0.5 0.0026503999252 -0.30116099119 -0.5 -0.18737800419
          -0.18628300726 -0.26750600338 -0.029726099223 -0.42740899324 -0.30482000113 -0.02907329984
          -0.51341497898 -0.020596599206 0.5 -0.33964401484 -0.12936100364 0.5
          -0.47073799372 -0.22246700525 0.21898700297 -0.55561101437 -0.26461198926 0.5
          3.3330900669 0.5 0.31517699361 3.1571199894 0.5 0.16706800461
          3.353579998 0.25871399045 0.31244799495 3.3437099457 0.5 0.098416596651
          -3.0034298897 -0.12146800011 0.11256500334 -3.119879961 0.056279499084 0.0078261103481
          -3.1703898907 -0.28369298577 0.029881799594 -3.0067799091 -0.070524998009 -0.1112980023
          5 0.087072201073 0.42495000362 4.7967801094 -0.036810200661 0.5
          4.9883899689 -0.15072099864 0.5 4.794479847 -0.0099189598113 0.26575800776
          -0.29398798943 -0.19200000167 -0.2282319963 -0.47420999408 -0.29338499904 -0.29220598936
          -0.46434998512 -0.23358699679 -0.5 -0.46267700195 -0.020818000659 -0.27643701434
          -3.7068300247 -0.31349000335 0.29142400622 -3.725509882 -0.28060400486 0.5
          -3.6482999325 -0.031938001513 0.5 -3.5796399117 -0.036828301847 0.30965799093
          4.1193199158 0.19485099614 0.5 4.2180900574 0.013842199929 0.5
          4.390999794 0.12619799376 0.5 4.2926101685 0.022265100852 0.30176800489
          3.1227400303 -0.30917099118 -0.31313300133 3.2362499237 -0.1912920028 -0.17273800075
          3.3585400581 -0.5 -0.16122399271 3.18708992 -0.32281601429 -0.009787529707
          -0.29486501217 0.23727999628 0.084538802505 -0.50226300955 0.5 0.14767700434
          -0.55149698257 0.19303299487 0.18695600331 -0.47131600976 0.32570299506 -0.023170199245
          -3.6195299625 0.18837699294 0.1758890003 -3.7612600327 0.27116200328 0.015408799984
          -3.6247899532 0.5 0.17990300059 -3.6287798882 0.30937200785 0.33959800005
          2.8473100662 0.22374899685 0.5 2.5758199692 0.075252600014 0.5
          2.6219000816 -0.015453300439 0.30282199383 2.6889400482 0.16072399914 0.18579299748
          2.9282898903 0.5 -0.19310599566 2.8296399117 0.5 -0.49776399136
          3.0176899433 0.33451101184 -0.5 3.1881299019 0.5 -0.42051500082
          -1.4892100096 0.17613700032 -0.19808200002 -1.6108299494 0.078509502113 -0.5
          -1.3341200352 0.058667398989 -0.30476099253 -1.3366099596 0.20833599567 -0.5
          -1.3363499641 0.5 0.056991901249 -1.6142400503 0.5 0.032841600478
          -1.5486299992 0.27752000093 0.017110800371 -1.4628200531 0.5 -0.09861010313
          -3.6472799778 0.44761100411 -0.5 -3.4697299004 0.28407201171 -0.298379004
          -3.6169199944 0.2079769969 -0.5 -3.7156999111 0.29170098901 -0.33228498697
          -1.0791499615 0.061705000699 0.5 -1.241230011 0.18273699284 0.5
          -1.1475800276 0.23044300079 0.22876000404 -0.96254199743 0.19088900089 0.5
          -4.1503901482 0.15257999301 -0.18268600106 -4.2024998665 0.29241999984 0.027058599517
          -3.9890100956 0.24387900531 0.0062287501059 -4.2314600945 0.092286400497 0.01309709996
          3.4734098911 0.21108800173 -0.2205349952 3.6711499691 0.31469801068 -0.29238000512
          3.7566299438 0.15342700481 -0.14512400329 3.6093900204 0.31306898594 -0.027008600533
          -3.1402900219 0.086144499481 -0.5 -3.2168300152 0.015511999838 -0.16400499642
          -3.0681700706 -0.022411899641 -0.31216698885 -3.387419939 -0.020452000201 -0.26496699452
          -3.5974299908 0.015700999647 0.0042460002005 -3.6202099323 -0.16945900023 0.16224400699
          -3.353219986 0.018101999536 -0.0069937198423 -3.4054200649 -0.24873800576 -0.029902800918
          2.6293599606 0.5 0.17279799283 2.4116399288 0.33501198888 0.26824301481
          2.3991000652 0.5 0.11198899895 2.5257198811 0.5 0.37575000525
          2.2021598816 0.01178739965 -0.018270699307 2.2796599865 0.15909999609 -0.20078100264
          2.0588099957 0.16667899489 -0.072469100356 2.1815600395 -0.001020470052 -0.32536798716
          -2.8699100018 0.034952599555 0.013808799908 -2.8308598995 0.31636199355 -0.103422001
          -3.0080699921 0.29238799214 0.028416100889 -2.9755399227 0.12714900076 -0.1661580056
          -0.46542999148 0.5 0.387439996 -0.62944000959 0.5 0.34010401368
          -0.38609901071 0.25310799479 0.3300819993 -0.50226300955 0.5 0.14767700434
          4.7124700546 0.20787400007 -0.21475000679 5 0.32882899046 -0.12744599581
          5 0.35498699546 -0.28927499056 5 0.16910900176 -0.16435900331
          -2.2438600063 -0.050747901201 -0.5 -2.1227400303 -0.27935901284 -0.5
          -2.3032701015 -0.32206401229 -0.5 -2.2611498833 -0.21604500711 -0.31563100219
          4.5567698479 0.040265500546 -0.029345599934 4.5822200775 0.29958099127 -0.0073895901442
          4.7025499344 0.19734199345 0.20103999972 4.5015702248 0.045086801052 0.27461698651
          -4.0139598846 -0.2127609998 -0.5 -3.8436501026 -0.17188200355 -0.5
          -3.889359951 -0.35665598512 -0.5 -3.9185600281 -0.21505500376 -0.20922599733
          1.2676099539 0.18327300251 0.17430500686 1.4356100559 0.30725300312 0.014958400279
          1.0667099953 0.30986699462 -0.00099666800816 1.2041200399 0.21308499575 -0.18568199873
          -1.0519599915 0.24375100434 -0.5 -1.2034000158 0.121028997 -0.5
          -1.1753100157 0.18597100675 -0.21642799675 -1.0471099615 0.090339496732 -0.5
          4.4985699654 0.29182401299 0.2750479877 4.6767001152 0.5 0.46980398893
          4.5328998566 0.5 0.15708899498 4.8042798042 0.5 0.31367200613
          4.1762099266 -0.5 -0.073627002537 4.3278198242 -0.19421100616 -0.1541839987
          4.3579602242 -0.5 -0.20988300443 4.3140602112 -0.30338901281 0.040695600212
          0.057354498655 0.2768329978 0.30196899176 -0.10846299678 0.5 0.18573200703
          -0.021123599261 0.2901929915 -0.037268299609 0.067414298654 0.5 0.05388860032
          -4.6261501312 0.17262099683 -0.1935839951 -4.7695999146 0.26816898584 -0.5
          -4.5744199753 0.044033199549 -0.5 -4.5752401352 0.31679400802 -0.5
          -4.3489499092 -0.10022199899 -0.5 -4.4539299011 -0.1930360049 -0.27674099803
          -4.5893697739 -0.027997599915 -0.31035900116 -4.4012899399 0.03873860091 -0.27101901174
          -0.021123599261 0.2901929915 -0.037268299609 0.067414298654 0.5 0.05388860032
          -0.12392300367 0.5 -0.12977199256 0.075165897608 0.5 -0.16578200459
          -2.1809399128 -0.24249899387 0.24300700426 -2.2719900608 -0.32766199112 0.080448098481
          -2.3618400097 -0.32881900668 0.3184300065 -2.268130064 -0.5 0.23155200481
          0.89347398281 0.5 -0.40201699734 0.89332699776 0.23076300323 -0.16234900057
          1.0355600119 0.3612369895 -0.5 0.82974797487 0.27198299766 -0.5
          -3.2586500645 0.20448499918 -0.21992500126 -2.9755399227 0.12714900076 -0.1661580056
          -3.2168300152 0.015511999838 -0.16400499642 -3.119879961 0.056279499084 0.0078261103481
          1.7191100121 -0.2926889956 0.013918399811 1.5000799894 -0.33221799135 -0.20392900705
          1.673140049 -0.32074698806 -0.32187500596 1.6971999407 -0.18535399437 -0.17042499781
          -3.8034300804 0.010254199617 -0.24826699495 -3.8436501026 -0.17188200355 -0.5
          -4.0346798897 -0.02448659949 -0.29127898812 -3.9185600281 -0.21505500376 -0.20922599733
          -4.3405499458 0.17424100637 -0.5 -4.5744199753 0.044033199549 -0.5
          -4.4012899399 0.03873860091 -0.27101901174 -4.3489499092 -0.10022199899 -0.5
          -1.670410037 -0.23073199391 -0.21768200397 -1.3521399498 -0.29692700505 -0.29181501269
          -1.5251499414 -0.076651901007 -0.31482899189 -1.4115899801 -0.27296701074 -0.5
          -3.6287798882 0.30937200785 0.33959800005 -3.697149992 0.5 0.36223399639
          -3.5643999577 0.41731798649 0.5 -3.7529900074 0.32859098911 0.5
          -2.6441700459 0.0031107501127 0.0051095401868 -2.8483600616 -0.1823129952 -0.18523199856
          -2.6087799072 -0.18399499357 -0.098889403045 -2.6364200115 -0.0513737984 -0.25086298585
          2.2679901123 0.5 -0.42606198788 2.4688100815 0.27537798882 -0.28756999969
          2.4966099262 0.5 -0.43169501424 2.3855099678 0.34596499801 -0.5
          2.3991000652 0.5 0.11198899895 2.2155299187 0.29384601116 -0.016047000885
          2.4481799603 0.24948500097 0.0013240700355 2.2502601147 0.5 -0.1980600059
          -1.5496799946 -0.11574400216 0.5 -1.7749300003 -0.093701399863 0.5
          -1.6999100447 -0.016917800531 0.25771600008 -1.6577099562 0.12280199677 0.5
          1.1263699532 -0.31314399838 0.27022001147 1.1665500402 -0.30232200027 0.032807700336
          1.0404800177 -0.5 0.084503702819 1.1000699997 -0.5 0.25644800067
          -0.48361599445 -0.5 -0.22838500142 -0.56736600399 -0.5 -0.39558899403
          -0.77074998617 -0.30250000954 -0.3132340014 -0.59884798527 -0.5 -0.081100203097
          1.3224300146 0.5 -0.35919898748 1.2041200399 0.21308499575 -0.18568199873
          1.3222500086 0.19783599675 -0.5 1.2371799946 0.38177201152 -0.5
          -1.5302300453 -0.20296399295 0.1751369983 -1.5232800245 0.099855400622 0.30515301228
          -1.5496799946 -0.11574400216 0.5 -1.6999100447 -0.016917800531 0.25771600008
          3.4290299416 -0.5 -0.34937500954 3.190030098 -0.22524799407 -0.5
          3.2248399258 -0.5 -0.3111949861 3.1475300789 -0.43508601189 -0.5
          -4.6675601006 -0.16073800623 -0.17753699422 -4.5859699249 -0.5 -0.20652399957
          -4.6199498177 -0.5 -0.060735598207 -4.439789772 -0.27735000849 -0.054897699505
          1.4679900408 -0.23194299638 -0.032342601568 1.4919899702 -0.5 0.0043379599229
          1.2443100214 -0.5 -0.079079799354 1.3733700514 -0.33255699277 0.11544699967
          4.7205901146 0.28053200245 -0.5 4.7124700546 0.20787400007 -0.21475000679
          4.501060009 0.27867999673 -0.21826599538 4.7633600235 0.5 -0.40220698714
          -3.5598199368 -0.5 0.038439199328 -3.6202099323 -0.16945900023 0.16224400699
          -3.5715000629 -0.33374500275 -0.11063300073 -3.4054200649 -0.24873800576 -0.029902800918
          2.2007598877 0.32477998734 -0.29550099373 2.2502601147 0.5 -0.1980600059
          2.2679901123 0.5 -0.42606198788 2.4688100815 0.27537798882 -0.28756999969
          2.3991000652 0.5 0.11198899895 2.6394400597 0.5 -0.0548616983
          2.6540100574 0.30316799879 0.029222900048 2.6293599606 0.5 0.17279799283
          0.20413899422 0.23499399424 -0.5 0.086851902306 0.090062998235 -0.5
          -0.12616600096 0.363714993 -0.5 -0.020521700382 0.27518200874 -0.3097819984
          -0.74638098478 -0.26905399561 0.5 -0.95835602283 -0.27399000525 0.5
          -0.80443400145 -0.5 0.34285399318 -0.87598198652 -0.27951401472 0.27214699984
          2.9283499718 0.5 0.14330999553 2.6293599606 0.5 0.17279799283
          2.8141000271 0.33296000957 0.21601100266 2.6540100574 0.30316799879 0.029222900048
          2.7792201042 -0.32771399617 -0.28562399745 2.6533699036 -0.5 -0.22465799749
          2.6179599762 -0.5 -0.39742100239 2.4597499371 -0.30076900125 -0.3059630096
          -0.80443400145 -0.5 0.34285399318 -0.87598198652 -0.27951401472 0.27214699984
          -0.65928399563 -0.29948800802 0.30083200336 -0.74638098478 -0.26905399561 0.5
          4.3140602112 -0.30338901281 0.040695600212 4.5181698799 -0.25569599867 -0.00080205698032
          4.5304999352 -0.5 -0.15178099275 4.4995098114 -0.5 0.058421999216
          -1.4028300047 -0.15640300512 -0.13328300416 -1.5899200439 -0.5 -0.14776800573
          -1.3853499889 -0.5 -0.1261779964 -1.3521399498 -0.29692700505 -0.29181501269
          -3.1692500114 -0.17956000566 -0.18042400479 -3.1629300117 -0.5 -0.34590101242
          -3.3308799267 -0.5 -0.28216999769 -3.1584899426 -0.5 -0.16631600261
          -2.141769886 0.5 -0.17799699306 -2.4157299995 0.5 -0.27320700884
          -2.2987000942 0.5 -0.012699699961 -2.1895999908 0.28031998873 -0.27681100368
          0.58461797237 0.18660899997 -0.17640599608 0.3682860136 0.00067014299566 0.0082637900487
          0.58827602863 -0.023083500564 0.03204099834 0.48660299182 -0.097960598767 -0.14581799507
          1.9453500509 -0.087545797229 -0.2573390007 2.040199995 0.016450500116 -0.5
          1.8725500107 0.093445502222 -0.32259699702 1.785670042 0.036040998995 -0.5
          0.68295001984 -0.13473699987 0.5 0.75085902214 -0.045475300401 0.28253901005
          0.98047602177 -0.18917199969 0.5 0.813831985 0.031614098698 0.5
          1.8424299955 0.5 0.20660300553 1.8041000366 0.5 0.48033800721
          1.818590045 0.3155849874 0.32314199209 1.626060009 0.5 0.34106299281
          -0.40286201239 -0.0046954802237 -0.0054140798748 -0.29398798943 -0.19200000167 -0.2282319963
          -0.6270070076 -0.18018999696 -0.18880400062 -0.42740899324 -0.30482000113 -0.02907329984
          -4.500120163 0.30916801095 -0.29975399375 -4.5744199753 0.044033199549 -0.5
          -4.6261501312 0.17262099683 -0.1935839951 -4.5893697739 -0.027997599915 -0.31035900116
          4.2311301231 -0.28602001071 0.30712598562 4.4160299301 -0.33252999187 0.5
          4.4824900627 -0.2778429985 0.28902798891 4.34815979 -0.5 0.30085599422
          -0.55561101437 -0.26461198926 0.5 -0.33964401484 -0.12936100364 0.5
          -0.29698100686 -0.33138298988 0.28727200627 -0.28134599328 -0.29646700621 0.5
          4.1665101051 -0.5 0.35283499956 4.2311301231 -0.28602001071 0.30712598562
          4.3113298416 -0.5 0.48262700438 4.0639600754 -0.30339500308 0.5
          -0.63264602423 -0.32936599851 0.064718000591 -0.47073799372 -0.22246700525 0.21898700297
          -0.3753170073 -0.5 0.14234599471 -0.48325100541 -0.5 0.32274898887
          4.4979701042 0.25243699551 -0.5 4.7124700546 0.20787400007 -0.21475000679
          4.501060009 0.27867999673 -0.21826599538 4.7205901146 0.28053200245 -0.5
          -4.2024998665 0.29241999984 0.027058599517 -4.1479997635 0.1524810046 0.18773500621
          -3.9890100956 0.24387900531 0.0062287501059 -4.2314600945 0.092286400497 0.01309709996
          -2.9157800674 -0.27548700571 -0.5 -3.1973099709 -0.4143140018 -0.5
          -3.0114998817 -0.30267500877 -0.29305499792 -2.9800601006 -0.5 -0.40619799495
          0.35873600841 0.27615499496 -0.16060699522 0.3682860136 0.00067014299566 0.0082637900487
          0.14069800079 0.16885900497 -0.17604699731 0.20313000679 0.30061998963 0.0047877700999
          1.9453500509 -0.087545797229 -0.2573390007 1.8725500107 0.093445502222 -0.32259699702
          1.6971999407 -0.18535399437 -0.17042499781 1.6074999571 0.030789300799 -0.26509699225
          1.3224300146 0.5 -0.35919898748 1.4860899448 0.23913800716 -0.2658199966
          1.3762099743 0.5 -0.1532869935 1.5281399488 0.5 -0.39227798581
          -0.63783198595 0.084412999451 -0.319272995 -0.92764699459 0.27740699053 -0.26456698775
          -0.74285399914 0.13776800036 -0.12904399633 -0.7856760025 -0.061230801046 -0.29652500153
          2.2796599865 0.15909999609 -0.20078100264 2.2021598816 0.01178739965 -0.018270699307
          2.4390499592 -0.057027101517 -0.2462310046 2.2014501095 -0.17346900702 -0.18166600168
          3.867939949 0.29484701157 -0.023631099612 3.8664000034 0.19483299553 0.16909499466
          3.9115200043 0.5 0.15832599998 4.0785198212 0.2688550055 0.022481000051
          -2.6128799915 0.13250499964 0.27421799302 -2.568860054 0.328433007 0.33221000433
          -2.4461400509 0.30663898587 0.5 -2.6651101112 0.18645100296 0.5
          -3.2058999538 0.30942299962 0.5 -3.2776799202 0.5 0.32763698697
          -3.138119936 0.5 0.48728901148 -3.3576700687 0.44374600053 0.5
          5 -0.40549901128 0.09935849905 5 -0.20979200304 0.28537601233
          5 -0.41344600916 0.33176600933 4.8106999397 -0.29430899024 0.31109198928
          -4.7847399712 0.018612299114 -0.27819800377 -4.765540123 0.29459398985 -0.015708299354
          -5 0.1004910022 -0.10199099779 -4.7795901299 0.30410701036 -0.28243198991
          -3.7612600327 0.27116200328 0.015408799984 -3.6415400505 0.18903900683 -0.16241000593
          -3.8989500999 0.24744200706 -0.23554000258 -3.8818199635 0.0094203203917 -0.0044903801754
          1.3762099743 0.5 -0.1532869935 1.2285900116 0.5 1.5277299099e-05
          1.2041200399 0.21308499575 -0.18568199873 1.0351999998 0.5 -0.23184999824
          -0.29334101081 0.37132000923 0.5 -0.38609901071 0.25310799479 0.3300819993
          -0.11969800293 0.24129599333 0.5 -0.16925099492 0.29148900509 0.27573001385
          -2.4500799179 -0.18146699667 0.1914049983 -2.6441700459 0.0031107501127 0.0051095401868
          -2.7145900726 -0.082542397082 0.279302001 -2.6965899467 -0.25478899479 0.070601798594
          -1.3363499641 0.5 0.056991901249 -1.2430000305 0.5 0.28215000033
          -1.3727099895 0.30601900816 0.28291600943 -1.5013799667 0.5 0.29929700494
          4.039850235 -0.20272299647 0.21478900313 4.2311301231 -0.28602001071 0.30712598562
          4.3434801102 -0.13885499537 0.17381000519 4.3140602112 -0.30338901281 0.040695600212
          -4.3976202011 -0.16255900264 0.25912800431 -4.237349987 -0.30583998561 0.5
          -4.0945601463 -0.28051298857 0.31798601151 -4.2715802193 -0.32873600721 0.20494799316
          0.93065899611 -0.030296299607 -0.23989999294 0.80673497915 0.05526150018 -0.040332399309
          0.71499300003 0.033225100487 -0.28708100319 0.89332699776 0.23076300323 -0.16234900057
          -4.1423802376 -0.18350799382 0.11192400008 -4.0238199234 -0.033451199532 0.28527000546
          -3.8883500099 -0.22696000338 0.22436200082 -4.0945601463 -0.28051298857 0.31798601151
          -4.513229847 -0.036582600325 0.5 -4.7207899094 -0.18141900003 0.5
          -4.5459198952 -0.24766799808 0.5 -4.605700016 -0.14155100286 0.34099599719
          2.2014501095 -0.17346900702 -0.18166600168 2.2314100266 -0.30056801438 0.0065283500589
          2.2389800549 -0.33469301462 -0.31423199177 2.0320599079 -0.29999300838 -0.11793000251
          -3.2381598949 0.5 -0.3880290091 -2.9230499268 0.5 -0.3529239893
          -3.0582199097 0.31288200617 -0.29153999686 -2.9498999119 0.5 -0.14169600606
          -4.6675601006 -0.16073800623 -0.17753699422 -4.6199498177 -0.5 -0.060735598207
          -4.7461600304 -0.5 -0.23019599915 -4.7982001305 -0.27365100384 -0.020341299474
          -4.0346798897 -0.02448659949 -0.29127898812 -3.9185600281 -0.21505500376 -0.20922599733
          -4.0849199295 -0.30423098803 -0.31639400125 -4.2221798897 -0.17677399516 -0.20671699941
          3.2248399258 -0.5 -0.3111949861 3.1227400303 -0.30917099118 -0.31313300133
          3.18708992 -0.32281601429 -0.009787529707 3.0969901085 -0.5 -0.1024639979
          -4.2221798897 -0.17677399516 -0.20671699941 -4.0997099876 -0.04042249918 -0.065122202039
          -4.411260128 -0.00020594299713 -0.0010824199999 -4.2314600945 0.092286400497 0.01309709996
          2.1815600395 -0.001020470052 -0.32536798716 2.040199995 0.016450500116 -0.5
          2.2902700901 0.13368199766 -0.5 2.1893599033 0.29838100076 -0.5
          0.14069800079 0.16885900497 -0.17604699731 -0.028405899182 0.038570299745 -0.28863999248
          -0.020521700382 0.27518200874 -0.3097819984 -0.18946300447 0.17974199355 -0.1773750037
          -4.1503901482 0.15257999301 -0.18268600106 -4.0346798897 -0.02448659949 -0.29127898812
          -4.2221798897 -0.17677399516 -0.20671699941 -4.0997099876 -0.04042249918 -0.065122202039
          3.8265800476 -0.00065459497273 0.32086899877 3.9662399292 0.2043710053 0.5
          4.0886101723 0.063145399094 0.2613709867 3.993170023 -0.055373799056 0.5
          -1.6577099562 0.12280199677 0.5 -1.8168400526 0.14203999937 0.32622399926
          -1.7749300003 -0.093701399863 0.5 -1.6999100447 -0.016917800531 0.25771600008
          -4.2751197815 0.5 0.02419850044 -4.4328398705 0.5 0.16251300275
          -4.5506501198 0.30194398761 0.066922001541 -4.514550209 0.5 -0.045017201453
          -1.868549943 -0.36587700248 -0.5 -1.9762599468 -0.5 -0.39294800162
          -1.8430000544 -0.33087998629 -0.29164901376 -1.7048399448 -0.4852539897 -0.5
          -2.4091000557 0.010666499846 0.010404500179 -2.6087799072 -0.18399499357 -0.098889403045
          -2.6364200115 -0.0513737984 -0.25086298585 -2.6441700459 0.0031107501127 0.0051095401868
          2.9103798866 -0.24695399404 0.5 2.797960043 -0.29616799951 0.32714900374
          2.9692099094 -0.18215200305 0.27709600329 2.8023600578 -0.042083900422 0.5
          -1.6647800207 0.24374599755 0.22540199757 -1.7108399868 0.45766401291 0.5
          -1.45697999 0.29096999764 0.5 -1.6577099562 0.12280199677 0.5
          3.1624600887 -0.015569499694 -0.02179059945 3.1808700562 0.17408800125 -0.17278499901
          3.095690012 0.30450299382 0.0079884901643 2.9765999317 0.15742999315 -0.14321500063
          2.6293599606 0.5 0.17279799283 2.6206200123 0.32416799664 0.30228099227
          2.4116399288 0.33501198888 0.26824301481 2.5257198811 0.5 0.37575000525
          0.96319800615 -0.25574100018 -0.086030602455 0.76386100054 -0.10622999817 0.089437901974
          0.80673497915 0.05526150018 -0.040332399309 1.0260499716 0.011771400459 0.016185000539
          -4.6675601006 -0.16073800623 -0.17753699422 -4.7819399834 -0.28898400068 -0.32071700692
          -4.5859699249 -0.5 -0.20652399957 -4.4539299011 -0.1930360049 -0.27674099803
          4.1033101082 0.5 -0.16609400511 4.0785198212 0.2688550055 0.022481000051
          4.1898999214 0.32223001122 -0.31539100409 4.0157899857 0.23598599434 -0.23627699912
          -3.406719923 -0.26567399502 -0.27803298831 -3.1629300117 -0.5 -0.34590101242
          -3.3308799267 -0.5 -0.28216999769 -3.1692500114 -0.17956000566 -0.18042400479
          -4.2221798897 -0.17677399516 -0.20671699941 -4.0997099876 -0.04042249918 -0.065122202039
          -4.2314600945 0.092286400497 0.01309709996 -4.4012899399 0.03873860091 -0.27101901174
          -2.8274400234 0.051215600222 -0.3225030005 -2.8483600616 -0.1823129952 -0.18523199856
          -3.0067799091 -0.070524998009 -0.1112980023 -2.8699100018 0.034952599555 0.013808799908
          -2.5264899731 0.5 -0.0051567801274 -2.7622299194 0.5 0.0010923099471
          -2.5066099167 0.5 0.23033800721 -2.6367399693 0.26534798741 0.078260503709
          1.8725500107 0.093445502222 -0.32259699702 1.7617299557 0.19749200344 -0.18400299549
          1.7197300196 -0.0059337001294 -0.015229499899 1.6074999571 0.030789300799 -0.26509699225
          2.6561300755 0.37442401052 -0.5 2.8429698944 0.28180000186 -0.27394500375
          2.7815999985 0.20081700385 -0.5 2.6477799416 0.16645799577 -0.17383100092
          -0.40286201239 -0.0046954802237 -0.0054140798748 -0.42740899324 -0.30482000113 -0.02907329984
          -0.47073799372 -0.22246700525 0.21898700297 -0.17885400355 -0.17817400396 0.19088800251
          5 0.040265500546 -0.029345599934 5 0.029062800109 0.15694400668
          5 -0.14510799944 -0.050927400589 4.7783799171 -0.058915100992 0.015639599413
          3.1408400536 -0.26990801096 0.5 2.9692099094 -0.18215200305 0.27709600329
          3.0548899174 -0.0057386700064 0.5 2.9103798866 -0.24695399404 0.5
          1.3350299597 0.5 0.26320800185 1.142539978 0.300906986 0.29215401411
          1.1859600544 0.5 0.33510899544 1.2936199903 0.35917899013 0.5
          -2.6087799072 -0.18399499357 -0.098889403045 -2.4091000557 0.010666499846 0.010404500179
          -2.4605801105 -0.31329700351 0.0017525800504 -2.4500799179 -0.18146699667 0.1914049983
          -4.8312702179 -0.5 0.1501930058 -4.794549942 -0.32775598764 0.30355900526
          -4.5986700058 -0.5 0.27377399802 -4.7161898613 -0.5 0.43861299753
          1.51098001 0.18941000104 -0.5 1.6638499498 0.32388100028 -0.30573499203
          1.6173299551 0.34555700421 -0.5 1.6999000311 0.18993200362 -0.5
          -0.18946300447 0.17974199355 -0.1773750037 -0.29486501217 0.23727999628 0.084538802505
          -0.40286201239 -0.0046954802237 -0.0054140798748 -0.47644600272 0.21734400094 -0.22011299431
          4.091340065 0.41007000208 -0.5 4.1898999214 0.32223001122 -0.31539100409
          4.2950100899 0.5 -0.35224300623 4.289440155 0.31779500842 -0.5
          -1.9544999599 -0.19884000719 -0.16746899486 -2.1942100525 -0.27436101437 -0.10729199648
          -2.0675001144 -0.32273799181 0.069159403443 -2.0754799843 -0.5 -0.065173096955
          -1.7690800428 0.27011099458 -0.5 -1.8656400442 0.28522598743 -0.2969610095
          -1.6463500261 0.28474900126 -0.30618798733 -1.7309900522 0.022700900212 -0.2696749866
          -4.5181999207 0.028785899282 0.28230598569 -4.5152201653 0.17846100032 0.5
          -4.3030099869 0.0012274599867 0.5 -4.513229847 -0.036582600325 0.5
          -2.9752700329 0.12661999464 -0.5 -3.0681700706 -0.022411899641 -0.31216698885
          -2.9389500618 -0.039363101125 -0.5 -3.1402900219 0.086144499481 -0.5
          3.9046399593 0.029231099412 -0.28819599748 3.9538800716 -0.19349299371 -0.21224999428
          4.1566100121 -0.01251959987 -0.28246301413 3.9156999588 -0.083973996341 -0.5
          -4.2342700958 -0.2943969965 -0.036790598184 -4.0997099876 -0.04042249918 -0.065122202039
          -4.2221798897 -0.17677399516 -0.20671699941 -4.022600174 -0.31765198708 -0.031538199633
          3.4916698933 -0.37139999866 -0.5 3.7846400738 -0.3112359941 -0.2879639864
          3.6315801144 -0.5 -0.39594000578 3.4532198906 -0.27570098639 -0.28086999059
          -1.5764600039 0.36043098569 -0.5 -1.8110899925 0.48072299361 -0.5
          -1.6463500261 0.28474900126 -0.30618798733 -1.7690800428 0.27011099458 -0.5
          0.41966900229 0.5 0.38582900167 0.45764601231 0.28433001041 0.29305499792
          0.58821898699 0.5 0.18288999796 0.27400401235 0.5 0.12896299362
          0.27188199759 -0.21608300507 -0.19496400654 0.17147399485 -0.046462800354 -0.28626099229
          0.2199189961 -0.15206000209 -0.010414100252 -0.014450499788 -0.12391400337 -0.11072800308
          3.424779892 -0.5 0.16588500142 3.1172299385 -0.5 0.090180002153
          3.3018300533 -0.5 0.031524900347 3.2869899273 -0.28170898557 0.32561299205
          2.797960043 -0.29616799951 0.32714900374 2.9252800941 -0.5 0.11620400101
          2.9692099094 -0.18215200305 0.27709600329 2.94404006 -0.24824899435 0.048307999969
          3.7603299618 -0.5 0.32295900583 3.5110299587 -0.5 0.32628598809
          3.678839922 -0.28315201402 0.29635599256 3.6408600807 -0.47381699085 0.5
          1.8512899876 -0.25720700622 0.29749301076 1.6337100267 -0.2680259943 0.5
          1.71875 0.012455300428 0.32105600834 1.8240200281 -0.074077397585 0.5
          4.7025499344 0.19734199345 0.20103999972 4.8432202339 0.33124399185 0.15127900243
          5 0.27808099985 0.26434999704 4.8295898438 0.25321400166 0.5
          1.2388900518 -0.17473700643 -0.16655999422 1.139539957 -0.036767199636 -0.30390501022
          1.0260499716 0.011771400459 0.016185000539 0.93065899611 -0.030296299607 -0.23989999294
          -1.1465300322 -0.23797599971 0.5 -1.3444800377 -0.30236798525 0.28137201071
          -1.2460000515 -0.40172600746 0.5 -1.1246000528 -0.21291700006 0.24169400334
          -5 -0.004447159823 0.13623799384 -5 0.15884299576 0.21330599487
          -4.8052501678 -0.030253799632 0.27854898572 -5 0.07584580034 0.38386198878
          4.6908898354 0.5 -0.18460099399 4.5822200775 0.29958099127 -0.0073895901442
          4.8203802109 0.5 -0.047230999917 4.7124700546 0.20787400007 -0.21475000679
          4.3434801102 -0.13885499537 0.17381000519 4.3140602112 -0.30338901281 0.040695600212
          4.317220211 0.013630899601 -0.032561101019 4.1160001755 -0.25597798824 -0.023964699358
          3.1743900776 -0.18350000679 0.1536089927 2.9201900959 0.0039753098972 -0.016150400043
          2.9353599548 0.054025001824 0.25657498837 2.9692099094 -0.18215200305 0.27709600329
          1.0260499716 0.011771400459 0.016185000539 1.2388900518 -0.17473700643 -0.16655999422
          1.0750000477 -0.14948399365 0.12495800108 1.2553399801 0.02869570069 -0.044535700232
          -4.2389798164 0.42935600877 -0.5 -4.2864198685 0.30046600103 -0.30744600296
          -4.1164798737 0.5 -0.23297099769 -4.0830402374 0.30948498845 -0.29728299379
          -3.0716400146 0.45964699984 -0.5 -2.9230499268 0.5 -0.3529239893
          -3.0582199097 0.31288200617 -0.29153999686 -3.2381598949 0.5 -0.3880290091
          -3.5715000629 -0.33374500275 -0.11063300073 -3.6202099323 -0.16945900023 0.16224400699
          -3.6039199829 -0.1486119926 -0.1880979985 -3.4054200649 -0.24873800576 -0.029902800918
          -1.9215400219 -0.19377499819 0.17684599757 -2.187210083 -0.061865199357 0.039609499276
          -2.1809399128 -0.24249899387 0.24300700426 -2.0675001144 -0.32273799181 0.069159403443
          4.6908898354 0.5 -0.18460099399 4.7124700546 0.20787400007 -0.21475000679
          5 0.32882899046 -0.12744599581 5 0.35498699546 -0.28927499056
          0.3798109889 -0.11770299822 0.17650899291 0.25244501233 -0.012676700018 0.29410201311
          0.46630200744 0.046083901078 0.25881299376 0.47176000476 -0.12052799761 0.5
          4.3579602242 -0.5 -0.20988300443 4.3140602112 -0.30338901281 0.040695600212
          4.5304999352 -0.5 -0.15178099275 4.4995098114 -0.5 0.058421999216
          1.3978899717 -0.017269099131 0.5 1.6280800104 0.11417599767 0.5
          1.3807200193 0.21050100029 0.5 1.4909499884 0.035039100796 0.2443370074
          -4.0346798897 -0.02448659949 -0.29127898812 -3.9185600281 -0.21505500376 -0.20922599733
          -4.0139598846 -0.2127609998 -0.5 -4.0849199295 -0.30423098803 -0.31639400125
          -3.3652899265 0.29221200943 0.018539199606 -3.6195299625 0.18837699294 0.1758890003
          -3.5640099049 0.29994499683 -0.013255200349 -3.3868999481 0.28687500954 0.25560098886
          0.27188199759 -0.21608300507 -0.19496400654 0.2199189961 -0.15206000209 -0.010414100252
          0.36774501204 -0.27583301067 0.050296399742 0.10427799821 -0.31776800752 -0.01549869962
          -1.3414299488 0.2976360023 -0.30167099833 -1.6463500261 0.28474900126 -0.30618798733
          -1.4210100174 0.5 -0.29471999407 -1.4892100096 0.17613700032 -0.19808200002
          -2.8607199192 0.16806200147 0.1988620013 -2.9205000401 0.31499001384 0.5
          -2.8798100948 0.024562800303 0.5 -3.012720108 0.29143700004 0.30083501339
          0.21745100617 -0.25824698806 0.5 0.47176000476 -0.12052799761 0.5
          0.37961798906 -0.27483201027 0.3045360148 0.53568398952 -0.32191199064 0.5
          3.7685399055 -0.11422099918 -0.34736299515 3.7148199081 0.013914800249 -0.5
          3.9046399593 0.029231099412 -0.28819599748 3.6228199005 0.064896397293 -0.30187800527
          1.0695999861 0.5 0.21742899716 0.78051799536 0.5 0.18855799735
          0.96667098999 0.22423000634 0.21116599441 0.85752302408 0.5 0.012258999981
          2.2014501095 -0.17346900702 -0.18166600168 2.0320599079 -0.29999300838 -0.11793000251
          2.2389800549 -0.33469301462 -0.31423199177 2.042320013 -0.28687000275 -0.5
          -3.4054200649 -0.24873800576 -0.029902800918 -3.4302499294 -0.5 0.19616499543
          -3.2899799347 -0.19551900029 0.21153800189 -3.3001599312 -0.5 -0.014418800361
          -1.5297700167 -0.41840699315 -0.5 -1.3610700369 -0.5 -0.49804601073
          -1.4707000256 -0.5 -0.29291000962 -1.3521399498 -0.29692700505 -0.29181501269
          -2.4806699753 -0.5 0.25502499938 -2.3618400097 -0.32881900668 0.3184300065
          -2.5125598907 -0.5 0.46646800637 -2.6140599251 -0.2892279923 0.31681698561
          -3.8034300804 0.010254199617 -0.24826699495 -3.7646200657 -0.015583699569 -0.5
          -3.6039199829 -0.1486119926 -0.1880979985 -3.5893199444 0.032997198403 -0.29434099793
          0.98047602177 -0.18917199969 0.5 0.813831985 0.031614098698 0.5
          0.75085902214 -0.045475300401 0.28253901005 1.0831899643 -0.026730500162 0.28337299824
          4.8295898438 0.25321400166 0.5 4.8042798042 0.5 0.31367200613
          4.9611001015 0.5 0.44039601088 4.6767001152 0.5 0.46980398893
          -0.93832302094 -0.045258000493 0.24930199981 -1.1438100338 0.013993400149 0.21154500544
          -1.1246000528 -0.21291700006 0.24169400334 -1.0750999451 -0.011404699646 0.007108009886
          -3.7200200558 -0.5 0.14442199469 -3.7068300247 -0.31349000335 0.29142400622
          -3.5598199368 -0.5 0.038439199328 -3.4786798954 -0.29719600081 0.28423199058
          -4.5071802139 -0.46488499641 0.5 -4.5459198952 -0.24766799808 0.5
          -4.7161898613 -0.5 0.43861299753 -4.5986700058 -0.5 0.27377399802
          1.6601899862 0.29914501309 -0.0094896201044 1.4356100559 0.30725300312 0.014958400279
          1.7132099867 0.18727500737 0.17964400351 1.4914300442 0.0569607988 -0.04182960093
          2.8704299927 -0.5 -0.1951110065 2.809910059 -0.30858701468 -0.088228099048
          2.9252800941 -0.5 0.11620400101 2.750590086 -0.5 -0.077522300184
          2.7815999985 0.20081700385 -0.5 2.6477799416 0.16645799577 -0.17383100092
          2.6635499001 -0.0075318100862 -0.31723999977 2.4803700447 0.1678159982 -0.5
          3.1408400536 -0.26990801096 0.5 3.2869899273 -0.28170898557 0.32561299205
          2.9692099094 -0.18215200305 0.27709600329 3.0828099251 -0.5 0.29510200024
          -1.6403199434 -0.1704210043 -0.5 -1.890920043 -0.16450600326 -0.5
          -1.8430000544 -0.33087998629 -0.29164901376 -1.868549943 -0.36587700248 -0.5
          0.93065899611 -0.030296299607 -0.23989999294 0.82210099697 -0.27426099777 -0.29057401419
          0.70115399361 -0.13068500161 -0.12672199309 0.96319800615 -0.25574100018 -0.086030602455
          0.53568398952 -0.32191199064 0.5 0.26355600357 -0.45382601023 0.5
          0.37961798906 -0.27483201027 0.3045360148 0.21745100617 -0.25824698806 0.5
          1.6601899862 0.29914501309 -0.0094896201044 1.7132099867 0.18727500737 0.17964400351
          1.7531599998 0.5 0.036465600133 1.9609899521 0.27691298723 0.076514601707
          -0.86464500427 0.18405400217 0.1796399951 -0.62403798103 0.035430200398 0.037675399333
          -0.55149698257 0.19303299487 0.18695600331 -0.68823200464 0.30021798611 0.030239600688
          3.6450901031 -0.17131699622 -0.19211299717 3.5628299713 -0.5 -0.19047999382
          3.4506099224 -0.25270500779 -0.04623780027 3.6328399181 -0.30484598875 0.056098300964
          1.4679900408 -0.23194299638 -0.032342601568 1.2443100214 -0.5 -0.079079799354
          1.3097499609 -0.32079198956 -0.30054301023 1.2388900518 -0.17473700643 -0.16655999422
          -4.5665698051 0.35982298851 0.5 -4.5957798958 0.24809199572 0.32881501317
          -4.6791801453 0.16429899633 0.5 -4.5152201653 0.17846100032 0.5
          3.2946200371 0.5 -0.20856200159 3.3973500729 0.5 -0.34653198719
          3.2970399857 0.30501198769 -0.2939350009 3.5255100727 0.5 -0.16535499692
          4.7696099281 -0.016697799787 -0.29300200939 4.4943199158 0.06769169867 -0.29010298848
          4.5178999901 -0.10659900308 -0.17478400469 4.5256800652 -0.098457798362 -0.5
          -3.6287798882 0.30937200785 0.33959800005 -3.7759699821 0.12645199895 0.5
          -3.595760107 0.14106500149 0.5 -3.776599884 -0.0024208100513 0.27819898725
          0.02034159936 -0.29206499457 -0.27554398775 -0.11357299984 -0.14485199749 -0.33142700791
          -0.29398798943 -0.19200000167 -0.2282319963 -0.094856999815 -0.5 -0.28745400906
          4.4943199158 0.06769169867 -0.29010298848 4.2944598198 0.20695400238 -0.17472800612
          4.317220211 0.013630899601 -0.032561101019 4.3479599953 -0.069560296834 -0.31158301234
          -3.6472799778 0.44761100411 -0.5 -3.4066801071 0.46902000904 -0.5
          -3.4697299004 0.28407201171 -0.298379004 -3.5694301128 0.5 -0.27657601237
          -3.8989500999 0.24744200706 -0.23554000258 -4.0830402374 0.30948498845 -0.29728299379
          -4.0201997757 0.5 0.0039351000451 -3.9890100956 0.24387900531 0.0062287501059
          -4.0860900879 0.5 0.47527000308 -4.261590004 0.5 0.28367200494
          -4.4446802139 0.5 0.46802300215 -4.2659602165 0.28228399158 0.5
          0.58827602863 -0.023083500564 0.03204099834 0.46630200744 0.046083901078 0.25881299376
          0.3682860136 0.00067014299566 0.0082637900487 0.46921399236 0.2665579915 0.056172598153
          -4.1479997635 0.1524810046 0.18773500621 -4.1248002052 0.32227998972 0.33130601048
          -3.971339941 0.069716103375 0.5 -4.1556100845 0.12476799637 0.5
          -0.95835602283 -0.27399000525 0.5 -1.1246000528 -0.21291700006 0.24169400334
          -0.87598198652 -0.27951401472 0.27214699984 -0.93832302094 -0.045258000493 0.24930199981
          3.6228199005 0.064896397293 -0.30187800527 3.6450901031 -0.17131699622 -0.19211299717
          3.7685399055 -0.11422099918 -0.34736299515 3.4951400757 -0.11613500118 -0.5
          0.58461797237 0.18660899997 -0.17640599608 0.3682860136 0.00067014299566 0.0082637900487
          0.48660299182 -0.097960598767 -0.14581799507 0.3679780066 0.042948998511 -0.26218301058
          -3.2381598949 0.5 -0.3880290091 -2.9498999119 0.5 -0.14169600606
          -3.0582199097 0.31288200617 -0.29153999686 -3.2857298851 0.5 -0.18894700706
          -1.3444800377 -0.30236798525 0.28137201071 -1.3964400291 -0.3062709868 0.030771600083
          -1.2431999445 -0.5 0.20165300369 -1.1855100393 -0.25224798918 -0.0140108997
          -3.5694301128 0.5 -0.27657601237 -3.4697299004 0.28407201171 -0.298379004
          -3.5640099049 0.29994499683 -0.013255200349 -3.5453898907 0.5 0.00052557198796
          -3.8540000916 -0.5 0.28207299113 -4.0987300873 -0.5 0.24074499309
          -3.8883500099 -0.22696000338 0.22436200082 -4.0945601463 -0.28051298857 0.31798601151
          4.501060009 0.27867999673 -0.21826599538 4.373770237 0.29578301311 -0.0035506200511
          4.2976098061 0.5 -0.16453999281 4.4749798775 0.5 -0.22600099444
          -3.6195299625 0.18837699294 0.1758890003 -3.8861699104 0.22745600343 0.24729199708
          -3.776599884 -0.0024208100513 0.27819898725 -3.8818199635 0.0094203203917 -0.0044903801754
          2.5257198811 0.5 0.37575000525 2.7771201134 0.5 0.34628498554
          2.6293599606 0.5 0.17279799283 2.6206200123 0.32416799664 0.30228099227
          -0.014323200099 -0.10396199673 0.093425601721 0.10427799821 -0.31776800752 -0.01549869962
          -0.012120299973 -0.32062399387 0.28174200654 0.15296399593 -0.18104599416 0.18370200694
          -1.1246000528 -0.21291700006 0.24169400334 -1.2460000515 -0.40172600746 0.5
          -0.99834597111 -0.5 0.33863401413 -1.2431999445 -0.5 0.20165300369
          1.673140049 -0.32074698806 -0.32187500596 1.5000799894 -0.33221799135 -0.20392900705
          1.5757000446 -0.34572100639 -0.5 1.4673299789 -0.16130299866 -0.30513200164
          5 -0.025442499667 -0.21136300266 5 0.16910900176 -0.16435900331
          4.8905501366 0.13403299451 -0.5 5 -0.058660898358 -0.40873599052
          2.2007598877 0.32477998734 -0.29550099373 2.1893599033 0.29838100076 -0.5
          2.0216500759 0.22515000403 -0.27024498582 2.1815600395 -0.001020470052 -0.32536798716
          -0.42740899324 -0.30482000113 -0.02907329984 -0.30116099119 -0.5 -0.18737800419
          -0.59884798527 -0.5 -0.081100203097 -0.3753170073 -0.5 0.14234599471
          -3.4394900799 0.2320100069 0.5 -3.3868999481 0.28687500954 0.25560098886
          -3.5643999577 0.41731798649 0.5 -3.6287798882 0.30937200785 0.33959800005
          -0.29334101081 0.37132000923 0.5 -0.11969800293 0.24129599333 0.5
          -0.085543900728 0.5 0.4370740056 -0.16925099492 0.29148900509 0.27573001385
          -2.8607199192 0.16806200147 0.1988620013 -2.9205000401 0.31499001384 0.5
          -2.6651101112 0.18645100296 0.5 -2.8798100948 0.024562800303 0.5
          2.9765999317 0.15742999315 -0.14321500063 3.0563700199 0.30440598726 -0.29042899609
          2.8999099731 0.041673701257 -0.29681798816 3.120470047 -0.021967599168 -0.27757799625
          -5 -0.004447159823 0.13623799384 -5 -0.26007699966 0.21836000681
          -5 -0.12896800041 0.37591099739 -4.8052501678 -0.030253799632 0.27854898572
          4.4979701042 0.25243699551 -0.5 4.2950100899 0.5 -0.35224300623
          4.5407099724 0.5 -0.4572699964 4.501060009 0.27867999673 -0.21826599538
          4.3579602242 -0.5 -0.20988300443 4.5181698799 -0.25569599867 -0.00080205698032
          4.5304999352 -0.5 -0.15178099275 4.3140602112 -0.30338901281 0.040695600212
          -3.889359951 -0.35665598512 -0.5 -3.7030899525 -0.27636900544 -0.5
          -3.8310699463 -0.5 -0.38916000724 -3.7279200554 -0.31415998936 -0.27874299884
          -4.7836899757 -0.0049985698424 -0.0062314402312 -4.5986399651 0.089573398232 -0.0050773997791
          -4.6742100716 -0.19076700509 0.15933300555 -4.6812400818 0.14698000252 0.1767770052
          -1.3262499571 0.2814899981 -0.050565201789 -1.3414299488 0.2976360023 -0.30167099833
          -1.4628200531 0.5 -0.09861010313 -1.4892100096 0.17613700032 -0.19808200002
          3.9538800716 -0.19349299371 -0.21224999428 3.7846400738 -0.3112359941 -0.2879639864
          3.7685399055 -0.11422099918 -0.34736299515 3.6450901031 -0.17131699622 -0.19211299717
          -3.6195299625 0.18837699294 0.1758890003 -3.7612600327 0.27116200328 0.015408799984
          -3.6287798882 0.30937200785 0.33959800005 -3.8861699104 0.22745600343 0.24729199708
          4.2013001442 -0.5 -0.3026599884 4.2686200142 -0.36589500308 -0.5
          4.3579602242 -0.5 -0.20988300443 4.1566100121 -0.27463600039 -0.28568801284
          -0.38609901071 0.25310799479 0.3300819993 -0.54225701094 0.182366997 0.5
          -0.55149698257 0.19303299487 0.18695600331 -0.71377199888 0.30195298791 0.28811401129
          -4.5893697739 -0.027997599915 -0.31035900116 -4.6675601006 -0.16073800623 -0.17753699422
          -4.7847399712 0.018612299114 -0.27819800377 -4.6261501312 0.17262099683 -0.1935839951
          3.120470047 -0.021967599168 -0.27757799625 2.9524600506 -0.22408300638 -0.21185599267
          3.1624600887 -0.015569499694 -0.02179059945 3.2362499237 -0.1912920028 -0.17273800075
          2.2796599865 0.15909999609 -0.20078100264 2.2502601147 0.5 -0.1980600059
          2.2007598877 0.32477998734 -0.29550099373 2.4688100815 0.27537798882 -0.28756999969
          2.2796599865 0.15909999609 -0.20078100264 2.2902700901 0.13368199766 -0.5
          2.2007598877 0.32477998734 -0.29550099373 2.1815600395 -0.001020470052 -0.32536798716
          1.2676099539 0.18327300251 0.17430500686 1.0667099953 0.30986699462 -0.00099666800816
          0.96667098999 0.22423000634 0.21116599441 1.0260499716 0.011771400459 0.016185000539
          2.9283499718 0.5 0.14330999553 2.8604700565 0.28147599101 -0.024887500331
          2.966039896 0.21264900267 0.13400100172 3.095690012 0.30450299382 0.0079884901643
          2.6700599194 -0.18108099699 -0.17258299887 2.6777200699 -0.0055014099926 -0.0048864497803
          2.809910059 -0.30858701468 -0.088228099048 2.6354598999 -0.29880100489 0.010485099629
          -3.4394900799 0.2320100069 0.5 -3.475399971 0.5 0.31425100565
          -3.5643999577 0.41731798649 0.5 -3.3868999481 0.28687500954 0.25560098886
          1.4356100559 0.30725300312 0.014958400279 1.3762099743 0.5 -0.1532869935
          1.2285900116 0.5 1.5277299099e-05 1.2041200399 0.21308499575 -0.18568199873
          1.9245300293 -0.27816799283 0.073713801801 2.0873699188 -0.15330499411 0.011435699649
          2.1778399944 -0.17710599303 0.19188399613 1.8789199591 -0.10240700096 0.16247299314
          -4.8773698807 0.1690479964 0.5 -4.6791801453 0.16429899633 0.5
          -4.7492098808 0.3132250011 0.5 -4.7674899101 0.33730000257 0.27226099372
          -1.5764600039 0.36043098569 -0.5 -1.3414299488 0.2976360023 -0.30167099833
          -1.3366099596 0.20833599567 -0.5 -1.6463500261 0.28474900126 -0.30618798733
          -4.0346798897 -0.02448659949 -0.29127898812 -3.8034300804 0.010254199617 -0.24826699495
          -3.9185600281 -0.21505500376 -0.20922599733 -3.8818199635 0.0094203203917 -0.0044903801754
          4.3434801102 -0.13885499537 0.17381000519 4.5567698479 0.040265500546 -0.029345599934
          4.5181698799 -0.25569599867 -0.00080205698032 4.6710700989 -0.19623799622 0.19057400525
          4.7140798569 -0.5 -0.1463650018 4.6962199211 -0.21809899807 -0.17522199452
          4.9067702293 -0.5 -0.13576300442 4.814139843 -0.29069000483 0.014058699831
          1.2676099539 0.18327300251 0.17430500686 1.2041200399 0.21308499575 -0.18568199873
          1.0667099953 0.30986699462 -0.00099666800816 1.2553399801 0.02869570069 -0.044535700232
          -2.6490800381 0.5 -0.17990100384 -2.9498999119 0.5 -0.14169600606
          -2.8308899403 0.31933999062 -0.31058201194 -2.9230499268 0.5 -0.3529239893
          2.2796599865 0.15909999609 -0.20078100264 2.2902700901 0.13368199766 -0.5
          2.4390499592 -0.057027101517 -0.2462310046 2.4803700447 0.1678159982 -0.5
          -4.411260128 -0.00020594299713 -0.0010824199999 -4.2342700958 -0.2943969965 -0.036790598184
          -4.2221798897 -0.17677399516 -0.20671699941 -4.439789772 -0.27735000849 -0.054897699505
          2.9282898903 0.5 -0.19310599566 2.8604700565 0.28147599101 -0.024887500331
          3.0563700199 0.30440598726 -0.29042899609 2.8429698944 0.28180000186 -0.27394500375
          -1.4628200531 0.5 -0.09861010313 -1.7420699596 0.2584669888 -0.11043199897
          -1.5486299992 0.27752000093 0.017110800371 -1.6463500261 0.28474900126 -0.30618798733
          -4.2490501404 -0.32240501046 -0.5 -4.1110301018 -0.5 -0.40642899275
          -4.4034199715 -0.5 -0.43696299195 -4.2746400833 -0.5 -0.25492700934
          -3.0562400818 -0.17835299671 0.5 -3.1171200275 -0.32041800022 0.23436300457
          -2.9220399857 -0.26491099596 0.30408999324 -3.1326100826 -0.026751099154 0.30142500997
          3.2869899273 -0.28170898557 0.32561299205 3.1743900776 -0.18350000679 0.1536089927
          3.4722599983 -0.22174499929 0.20733100176 3.3886699677 0.01943529956 0.25713300705
          0.98047602177 -0.18917199969 0.5 0.98735398054 0.096338197589 0.5
          1.0831899643 -0.026730500162 0.28337299824 1.1710499525 0.11986300349 0.5
          1.9609899521 0.27691298723 0.076514601707 2.0367600918 0.30077698827 0.30471900105
          2.1986699104 0.16770100594 0.18445199728 1.9551000595 0.040498699993 0.28340399265
          -1.3262499571 0.2814899981 -0.050565201789 -1.5486299992 0.27752000093 0.017110800371
          -1.4892100096 0.17613700032 -0.19808200002 -1.4628200531 0.5 -0.09861010313
          0.70115399361 -0.13068500161 -0.12672199309 0.52369099855 -0.25701698661 -0.29001700878
          0.82210099697 -0.27426099777 -0.29057401419 0.71499300003 0.033225100487 -0.28708100319
          -3.119879961 0.056279499084 0.0078261103481 -2.9183399677 -0.016215600073 0.29276099801
          -3.0034298897 -0.12146800011 0.11256500334 -3.1326100826 -0.026751099154 0.30142500997
          -1.670410037 -0.23073199391 -0.21768200397 -1.4707000256 -0.5 -0.29291000962
          -1.3521399498 -0.29692700505 -0.29181501269 -1.5297700167 -0.41840699315 -0.5
          3.7603299618 -0.5 0.32295900583 3.678839922 -0.28315201402 0.29635599256
          3.841520071 -0.36154899001 0.5 3.6408600807 -0.47381699085 0.5
          0.96319800615 -0.25574100018 -0.086030602455 1.0750000477 -0.14948399365 0.12495800108
          0.76386100054 -0.10622999817 0.089437901974 1.0260499716 0.011771400459 0.016185000539
          -1.7749300003 -0.093701399863 0.5 -1.9607599974 -0.22289100289 0.5
          -1.637830019 -0.34564900398 0.5 -1.7268799543 -0.26261898875 0.29539200664
          1.4891799688 -0.27188199759 0.26980000734 1.6828099489 -0.15067499876 0.17043499649
          1.6352499723 -0.5 0.19289499521 1.8512899876 -0.25720700622 0.29749301076
          4.7205901146 0.28053200245 -0.5 5 0.35498699546 -0.28927499056
          4.7124700546 0.20787400007 -0.21475000679 4.7633600235 0.5 -0.40220698714
          -1.728489995 -0.2819840014 0.029070099816 -1.6999100447 -0.016917800531 0.25771600008
          -1.5302300453 -0.20296399295 0.1751369983 -1.7268799543 -0.26261898875 0.29539200664
          2.797960043 -0.29616799951 0.32714900374 2.9692099094 -0.18215200305 0.27709600329
          3.0828099251 -0.5 0.29510200024 2.9103798866 -0.24695399404 0.5
          -1.2951300144 0.045372098684 -0.065485596657 -1.3341200352 0.058667398989 -0.30476099253
          -1.1722400188 -0.078797601163 -0.24050499499 -1.1753100157 0.18597100675 -0.21642799675
          -2.471460104 0.079349301755 -0.5 -2.6364200115 -0.0513737984 -0.25086298585
          -2.6483700275 0.13034400344 -0.5 -2.6850099564 0.20022499561 -0.22423900664
          -2.4500799179 -0.18146699667 0.1914049983 -2.4091000557 0.010666499846 0.010404500179
          -2.4325098991 0.0032291798852 0.31787699461 -2.6441700459 0.0031107501127 0.0051095401868
          0.25995999575 0.5 0.30666300654 0.086996898055 0.5 0.2632420063
          0.25142499804 0.20395800471 0.20601199567 0.27400401235 0.5 0.12896299362
          -3.3607699871 0.21685799956 -0.5 -3.1714200974 0.28492799401 -0.5
          -3.1402900219 0.086144499481 -0.5 -3.2586500645 0.20448499918 -0.21992500126
          -4.7847399712 0.018612299114 -0.27819800377 -4.5893697739 -0.027997599915 -0.31035900116
          -4.8039498329 -0.1570609957 -0.5 -4.7819399834 -0.28898400068 -0.32071700692
          -2.9755399227 0.12714900076 -0.1661580056 -2.8308899403 0.31933999062 -0.31058201194
          -2.8274400234 0.051215600222 -0.3225030005 -2.6850099564 0.20022499561 -0.22423900664
          -0.020521700382 0.27518200874 -0.3097819984 -0.021123599261 0.2901929915 -0.037268299609
          -0.12392300367 0.5 -0.12977199256 0.075165897608 0.5 -0.16578200459
          0.25332000852 -0.5 0.31911799312 0.37961798906 -0.27483201027 0.3045360148
          0.23762199283 -0.5 0.14814600348 0.40799000859 -0.5 0.24458500743
          1.4891799688 -0.27188199759 0.26980000734 1.3978899717 -0.017269099131 0.5
          1.4909499884 0.035039100796 0.2443370074 1.5849699974 -0.077601596713 0.5
          4.0785198212 0.2688550055 0.022481000051 4.0886101723 0.063145399094 0.2613709867
          4.0779399872 0.0020779399201 -0.0058176601306 3.8664000034 0.19483299553 0.16909499466
          -0.020521700382 0.27518200874 -0.3097819984 -0.25742098689 0.29623898864 -0.3442530036
          -0.26246398687 0.5 -0.27721399069 -0.12392300367 0.5 -0.12977199256
          0.82974797487 0.27198299766 -0.5 0.89332699776 0.23076300323 -0.16234900057
          1.0355600119 0.3612369895 -0.5 1.035220027 0.14891000092 -0.29856100678
          -1.1246000528 -0.21291700006 0.24169400334 -1.2431999445 -0.5 0.20165300369
          -0.99834597111 -0.5 0.33863401413 -1.1115700006 -0.5 0.061790000647
          -1.9607599974 -0.22289100289 0.5 -2.0053899288 -0.31090599298 0.32138600945
          -2.1087300777 -0.5 0.46349099278 -1.9660600424 -0.5 0.38725298643
          0.46921399236 0.2665579915 0.056172598153 0.35873600841 0.27615499496 -0.16060699522
          0.27108699083 0.5 -0.08351060003 0.20313000679 0.30061998963 0.0047877700999
          -3.119879961 0.056279499084 0.0078261103481 -3.2586500645 0.20448499918 -0.21992500126
          -3.353219986 0.018101999536 -0.0069937198423 -3.2168300152 0.015511999838 -0.16400499642
          -2.9412100315 -0.31262499094 -0.011466300115 -3.0034298897 -0.12146800011 0.11256500334
          -3.0067799091 -0.070524998009 -0.1112980023 -2.8483600616 -0.1823129952 -0.18523199856
          -2.3742499352 0.16180799901 -0.16647900641 -2.4123599529 0.30793198943 -0.0017855500337
          -2.5539898872 0.16441999376 -0.075327299535 -2.4949100018 0.29038199782 -0.30940899253
          -2.1791601181 0.066247500479 0.26825898886 -2.182790041 0.25494199991 0.029647100717
          -1.9560199976 0.18910500407 0.17773799598 -2.2191998959 0.31082698703 0.26025301218
          -2.8269600868 0.33847901225 0.099728599191 -2.8308598995 0.31636199355 -0.103422001
          -3.0080699921 0.29238799214 0.028416100889 -2.8699100018 0.034952599555 0.013808799908
          4.4995098114 -0.5 0.058421999216 4.7109298706 -0.5 0.037262801081
          4.5181698799 -0.25569599867 -0.00080205698032 4.5304999352 -0.5 -0.15178099275
          3.5376200676 0.42240199447 -0.5 3.5255100727 0.5 -0.16535499692
          3.8109300137 0.5 -0.32591500878 3.6711499691 0.31469801068 -0.29238000512
          -2.4949100018 0.29038199782 -0.30940899253 -2.6483700275 0.13034400344 -0.5
          -2.6850099564 0.20022499561 -0.22423900664 -2.471460104 0.079349301755 -0.5
          -0.33964401484 -0.12936100364 0.5 -0.47073799372 -0.22246700525 0.21898700297
          -0.35255399346 0.016716400161 0.25871700048 -0.51341497898 -0.020596599206 0.5
          -1.670410037 -0.23073199391 -0.21768200397 -1.728489995 -0.2819840014 0.029070099816
          -1.5899200439 -0.5 -0.14776800573 -1.7730799913 -0.5 -0.18303699791
          -3.5893199444 0.032997198403 -0.29434099793 -3.6039199829 -0.1486119926 -0.1880979985
          -3.5974299908 0.015700999647 0.0042460002005 -3.387419939 -0.020452000201 -0.26496699452
          1.0260499716 0.011771400459 0.016185000539 1.0831899643 -0.026730500162 0.28337299824
          1.2553399801 0.02869570069 -0.044535700232 1.0750000477 -0.14948399365 0.12495800108
          3.8265800476 -0.00065459497273 0.32086899877 3.9662399292 0.2043710053 0.5
          3.993170023 -0.055373799056 0.5 3.8187499046 -0.026935700327 0.5
          -0.41667899489 0.5 -0.48140498996 -0.43139898777 0.5 -0.15948499739
          -0.47644600272 0.21734400094 -0.22011299431 -0.60728102922 0.5 -0.3106789887
          -2.141769886 0.5 -0.17799699306 -2.1567900181 0.5 -0.46172600985
          -2.1895999908 0.28031998873 -0.27681100368 -1.9338200092 0.5 -0.29581001401
          -4.6261501312 0.17262099683 -0.1935839951 -4.7836899757 -0.0049985698424 -0.0062314402312
          -4.5986399651 0.089573398232 -0.0050773997791 -4.7847399712 0.018612299114 -0.27819800377
          1.4357299805 -0.35067200661 0.5 1.4243400097 -0.5 0.34605500102
          1.2525800467 -0.23895399272 0.5 1.2566000223 -0.4687319994 0.5
          -0.74051898718 -0.13983599842 0.1276730001 -0.78096401691 -0.28885498643 -0.091540999711
          -0.63264602423 -0.32936599851 0.064718000591 -0.53925698996 -0.14979499578 0.041408799589
          -2.7145900726 -0.082542397082 0.279302001 -2.8699100018 0.034952599555 0.013808799908
          -3.0034298897 -0.12146800011 0.11256500334 -2.6965899467 -0.25478899479 0.070601798594
          3.4916698933 -0.37139999866 -0.5 3.190030098 -0.22524799407 -0.5
          3.4290299416 -0.5 -0.34937500954 3.1475300789 -0.43508601189 -0.5
          -2.3735599518 -0.0037444499321 -0.31686800718 -2.4248900414 -0.10110799968 -0.5
          -2.6364200115 -0.0513737984 -0.25086298585 -2.4208400249 -0.17098300159 -0.17608100176
          1.8424299955 0.5 0.20660300553 1.9609899521 0.27691298723 0.076514601707
          2.1185901165 0.5 0.19517299533 2.0984899998 0.5 -0.030215999112
          -0.11969800293 0.24129599333 0.5 0.057354498655 0.2768329978 0.30196899176
          -0.16925099492 0.29148900509 0.27573001385 -0.16119599342 0.084271103144 0.32078498602
          1.51098001 0.18941000104 -0.5 1.5757000446 -0.01348510012 -0.5
          1.3222500086 0.19783599675 -0.5 1.3415499926 0.046351000667 -0.2966940105
          1.4860899448 0.23913800716 -0.2658199966 1.51098001 0.18941000104 -0.5
          1.3222500086 0.19783599675 -0.5 1.3415499926 0.046351000667 -0.2966940105
          -2.6490800381 0.5 -0.17990100384 -2.9230499268 0.5 -0.3529239893
          -2.8308899403 0.31933999062 -0.31058201194 -2.7123599052 0.5 -0.38375499845
          0.7291790247 -0.29900100827 0.29153800011 0.76386100054 -0.10622999817 0.089437901974
          0.58512401581 -0.18639500439 0.18318599463 0.78195297718 -0.29943698645 0.031285099685
          3.2171900272 0.5 -0.054951798171 3.095690012 0.30450299382 0.0079884901643
          3.1241300106 0.5 -0.23149099946 2.9282898903 0.5 -0.19310599566
          -2.5066099167 0.5 0.23033800721 -2.6573500633 0.5 0.4123570025
          -2.332449913 0.5 0.39009299874 -2.568860054 0.328433007 0.33221000433
          -3.177740097 0.19153399765 0.19352599978 -2.9183399677 -0.016215600073 0.29276099801
          -3.119879961 0.056279499084 0.0078261103481 -3.1326100826 -0.026751099154 0.30142500997
          -4.697619915 0.5 -0.22214700282 -4.765540123 0.29459398985 -0.015708299354
          -4.6261501312 0.17262099683 -0.1935839951 -4.7795901299 0.30410701036 -0.28243198991
          -1.1753100157 0.18597100675 -0.21642799675 -1.2951300144 0.045372098684 -0.065485596657
          -1.0172100067 0.25485399365 -0.020222399384 -1.0750999451 -0.011404699646 0.007108009886
          3.9605000019 0.5 0.34884899855 3.9557700157 0.35738798976 0.5
          4.1271901131 0.47496300936 0.5 4.1333699226 0.29578199983 0.28484800458
          0.70714598894 0.5 -0.22382299602 0.85752302408 0.5 0.012258999981
          1.0351999998 0.5 -0.23184999824 0.89332699776 0.23076300323 -0.16234900057
          -0.1279810071 -0.26361098886 -0.5 -0.29023098946 -0.5 -0.36567699909
          -0.29398798943 -0.19200000167 -0.2282319963 -0.094856999815 -0.5 -0.28745400906
          -2.6441700459 0.0031107501127 0.0051095401868 -2.8607199192 0.16806200147 0.1988620013
          -2.6128799915 0.13250499964 0.27421799302 -2.7145900726 -0.082542397082 0.279302001
          0.57893800735 0.29019400477 -0.5 0.73280501366 0.2939440012 -0.30173701048
          0.82974797487 0.27198299766 -0.5 0.67495399714 0.10961399972 -0.5
          -3.5893199444 0.032997198403 -0.29434099793 -3.8034300804 0.010254199617 -0.24826699495
          -3.5974299908 0.015700999647 0.0042460002005 -3.6039199829 -0.1486119926 -0.1880979985
          -1.5232800245 0.099855400622 0.30515301228 -1.6577099562 0.12280199677 0.5
          -1.8168400526 0.14203999937 0.32622399926 -1.6647800207 0.24374599755 0.22540199757
          2.5668699741 -0.11371900141 0.5 2.3842000961 -0.1629229933 0.5
          2.4428100586 0.10961800069 0.26388600469 2.3315200806 0.075631901622 0.5
          4.1160001755 -0.25597798824 -0.023964699358 4.1762099266 -0.5 -0.073627002537
          4.0018801689 -0.5 -0.21358500421 3.9580099583 -0.5 0.00037011300446
          3.3585400581 -0.5 -0.16122399271 3.18708992 -0.32281601429 -0.009787529707
          3.3018300533 -0.5 0.031524900347 3.0969901085 -0.5 -0.1024639979
          4.7124700546 0.20787400007 -0.21475000679 4.8058700562 0.17079499364 -0.0053127701394
          4.8203802109 0.5 -0.047230999917 5 0.32882899046 -0.12744599581
          -4.5130600929 -0.32579600811 0.18804700673 -4.3976202011 -0.16255900264 0.25912800431
          -4.439789772 -0.27735000849 -0.054897699505 -4.2715802193 -0.32873600721 0.20494799316
          -2.4325098991 0.0032291798852 0.31787699461 -2.1791601181 0.066247500479 0.26825898886
          -2.4500799179 -0.18146699667 0.1914049983 -2.1809399128 -0.24249899387 0.24300700426
          -1.7690800428 0.27011099458 -0.5 -1.8528900146 0.074574902654 -0.5
          -1.7309900522 0.022700900212 -0.2696749866 -1.6108299494 0.078509502113 -0.5
          1.7191100121 -0.2926889956 0.013918399811 1.673140049 -0.32074698806 -0.32187500596
          1.8100399971 -0.5 -0.073667302728 1.6971999407 -0.18535399437 -0.17042499781
          -2.131000042 0.5 0.14166200161 -2.332449913 0.5 0.39009299874
          -2.2191998959 0.31082698703 0.26025301218 -2.5066099167 0.5 0.23033800721
          -1.3363499641 0.5 0.056991901249 -1.5486299992 0.27752000093 0.017110800371
          -1.6142400503 0.5 0.032841600478 -1.5013799667 0.5 0.29929700494
          -2.1895999908 0.28031998873 -0.27681100368 -2.3761999607 0.32358598709 -0.5
          -2.1926898956 0.17790399492 -0.5 -2.1567900181 0.5 -0.46172600985
          -4.439789772 -0.27735000849 -0.054897699505 -4.5859699249 -0.5 -0.20652399957
          -4.6199498177 -0.5 -0.060735598207 -4.4352798462 -0.5 -0.094545200467
          -2.1895999908 0.28031998873 -0.27681100368 -2.4157299995 0.5 -0.27320700884
          -2.4123599529 0.30793198943 -0.0017855500337 -2.3742499352 0.16180799901 -0.16647900641
          4.5822200775 0.29958099127 -0.0073895901442 4.8432202339 0.33124399185 0.15127900243
          4.8058700562 0.17079499364 -0.0053127701394 4.7025499344 0.19734199345 0.20103999972
          -0.70035898685 -0.45424199104 0.5 -0.74638098478 -0.26905399561 0.5
          -0.65928399563 -0.29948800802 0.30083200336 -0.55561101437 -0.26461198926 0.5
          -1.4892100096 0.17613700032 -0.19808200002 -1.5251499414 -0.076651901007 -0.31482899189
          -1.5096600056 -0.035843800753 0.024828599766 -1.4028300047 -0.15640300512 -0.13328300416
          1.1665500402 -0.30232200027 0.032807700336 1.2443100214 -0.5 -0.079079799354
          1.0404800177 -0.5 0.084503702819 1.2694100142 -0.5 0.16097800434
          -2.6651101112 0.18645100296 0.5 -2.4325098991 0.0032291798852 0.31787699461
          -2.5157299042 -0.098369702697 0.5 -2.2944800854 0.10816299915 0.5
          -3.2586500645 0.20448499918 -0.21992500126 -3.0582199097 0.31288200617 -0.29153999686
          -3.1402900219 0.086144499481 -0.5 -3.0681700706 -0.022411899641 -0.31216698885
          1.2553399801 0.02869570069 -0.044535700232 1.4356100559 0.30725300312 0.014958400279
          1.2676099539 0.18327300251 0.17430500686 1.2041200399 0.21308499575 -0.18568199873
          -4.022600174 -0.31765198708 -0.031538199633 -4.0849199295 -0.30423098803 -0.31639400125
          -4.2342700958 -0.2943969965 -0.036790598184 -4.0541300774 -0.5 -0.16820600629
          -4.0139598846 -0.2127609998 -0.5 -3.889359951 -0.35665598512 -0.5
          -4.0849199295 -0.30423098803 -0.31639400125 -3.9185600281 -0.21505500376 -0.20922599733
          4.5181698799 -0.25569599867 -0.00080205698032 4.7783799171 -0.058915100992 0.015639599413
          4.814139843 -0.29069000483 0.014058699831 4.6710700989 -0.19623799622 0.19057400525
          0.27188199759 -0.21608300507 -0.19496400654 0.29461199045 -0.27944099903 -0.5
          0.52369099855 -0.25701698661 -0.29001700878 0.39225000143 -0.090401999652 -0.5
          -3.315500021 0.091922298074 0.5 -3.3868999481 0.28687500954 0.25560098886
          -3.2058999538 0.30942299962 0.5 -3.4394900799 0.2320100069 0.5
          -4.6633000374 0.5 0.39759600163 -4.5338001251 0.5 0.29403999448
          -4.7674899101 0.33730000257 0.27226099372 -4.5957798958 0.24809199572 0.32881501317
          0.10427799821 -0.31776800752 -0.01549869962 0.23762199283 -0.5 0.14814600348
          0.36774501204 -0.27583301067 0.050296399742 0.2626529932 -0.5 -0.065027400851
          2.8429698944 0.28180000186 -0.27394500375 2.6635499001 -0.0075318100862 -0.31723999977
          2.6477799416 0.16645799577 -0.17383100092 2.8999099731 0.041673701257 -0.29681798816
          2.4968700409 -0.3149009943 0.5 2.3842000961 -0.1629229933 0.5
          2.4458899498 -0.25059598684 0.23923400044 2.5668699741 -0.11371900141 0.5
          0.46921399236 0.2665579915 0.056172598153 0.25142499804 0.20395800471 0.20601199567
          0.20313000679 0.30061998963 0.0047877700999 0.27400401235 0.5 0.12896299362
          -3.6202099323 -0.16945900023 0.16224400699 -3.7068300247 -0.31349000335 0.29142400622
          -3.5796399117 -0.036828301847 0.30965799093 -3.4786798954 -0.29719600081 0.28423199058
          -1.1475800276 0.23044300079 0.22876000404 -1.4028999805 0.13422000408 0.12791000307
          -1.29381001 0.12503300607 0.31571400166 -1.1438100338 0.013993400149 0.21154500544
          -3.1714200974 0.28492799401 -0.5 -2.8458900452 0.23675900698 -0.5
          -2.9752700329 0.12661999464 -0.5 -3.0582199097 0.31288200617 -0.29153999686
          -0.91965401173 -0.5 0.069327197969 -0.66166800261 -0.5 0.21156099439
          -0.63264602423 -0.32936599851 0.064718000591 -0.79164099693 -0.5 -0.074961297214
          -1.5214099884 -0.5 0.34752699733 -1.3444800377 -0.30236798525 0.28137201071
          -1.3560899496 -0.21440200508 0.5 -1.637830019 -0.34564900398 0.5
          0.23762199283 -0.5 0.14814600348 -0.035155199468 -0.5 0.074470199645
          0.2626529932 -0.5 -0.065027400851 0.10427799821 -0.31776800752 -0.01549869962
          -0.7581089735 -0.15487499535 -0.5 -0.77074998617 -0.30250000954 -0.3132340014
          -0.98949998617 -0.096335403621 -0.5 -0.7856760025 -0.061230801046 -0.29652500153
          -2.4208400249 -0.17098300159 -0.17608100176 -2.4834799767 -0.27802801132 -0.5
          -2.5989000797 -0.16783699393 -0.5 -2.6132099628 -0.29757499695 -0.26779401302
          -4.7847399712 0.018612299114 -0.27819800377 -4.5893697739 -0.027997599915 -0.31035900116
          -4.5744199753 0.044033199549 -0.5 -4.6226601601 -0.13244700432 -0.5
          1.1263699532 -0.31314399838 0.27022001147 0.95045101643 -0.36442101002 0.5
          0.89871001244 -0.21273000538 0.19672900438 0.98047602177 -0.18917199969 0.5
          3.1743900776 -0.18350000679 0.1536089927 3.1172299385 -0.5 0.090180002153
          3.18708992 -0.32281601429 -0.009787529707 2.94404006 -0.24824899435 0.048307999969
          3.6745901108 -0.5 -0.024972600862 3.5628299713 -0.5 -0.19047999382
          3.6328399181 -0.30484598875 0.056098300964 3.4999299049 -0.5 -8.444820196e-06
          2.6809399128 0.37128800154 0.5 2.7771201134 0.5 0.34628498554
          2.8141000271 0.33296000957 0.21601100266 2.8473100662 0.22374899685 0.5
          -5 0.1004910022 -0.10199099779 -5 -0.16616299748 -0.067754097283
          -5 -0.004447159823 0.13623799384 -4.7836899757 -0.0049985698424 -0.0062314402312
          4.3434801102 -0.13885499537 0.17381000519 4.4824900627 -0.2778429985 0.28902798891
          4.2311301231 -0.28602001071 0.30712598562 4.2901201248 -0.17937499285 0.5
          2.6700599194 -0.18108099699 -0.17258299887 2.809910059 -0.30858701468 -0.088228099048
          2.7792201042 -0.32771399617 -0.28562399745 2.6533699036 -0.5 -0.22465799749
          4.8203802109 0.5 -0.047230999917 4.9942002296 0.5 0.13716499507
          4.9951200485 0.5 -0.11868099868 5 0.29265201092 0.032442100346
          0.49744200706 0.32136800885 -0.31016400456 0.58461797237 0.18660899997 -0.17640599608
          0.50762802362 0.094153903425 -0.5 0.3679780066 0.042948998511 -0.26218301058
          2.1141200066 -0.5 -0.35961300135 1.8699899912 -0.30787700415 -0.26772201061
          1.8518699408 -0.5 -0.39846301079 2.042320013 -0.28687000275 -0.5
          -0.6270070076 -0.18018999696 -0.18880400062 -0.53925698996 -0.14979499578 0.041408799589
          -0.40286201239 -0.0046954802237 -0.0054140798748 -0.42740899324 -0.30482000113 -0.02907329984
          2.4481799603 0.24948500097 0.0013240700355 2.1986699104 0.16770100594 0.18445199728
          2.4395799637 -0.026134699583 0.038382198662 2.2021598816 0.01178739965 -0.018270699307
          -1.8138200045 -0.5 0.13895599544 -1.9215400219 -0.19377499819 0.17684599757
          -2.03008008 -0.5 0.23870000243 -2.0675001144 -0.32273799181 0.069159403443
          -3.7156999111 0.29170098901 -0.33228498697 -3.4697299004 0.28407201171 -0.298379004
          -3.6169199944 0.2079769969 -0.5 -3.5893199444 0.032997198403 -0.29434099793
          -2.4806699753 -0.5 0.25502499938 -2.6140599251 -0.2892279923 0.31681698561
          -2.5125598907 -0.5 0.46646800637 -2.7104799747 -0.5 0.29420700669
          -2.3742499352 0.16180799901 -0.16647900641 -2.1682898998 -0.037599701434 -0.23476999998
          -2.2036099434 0.092982001603 -0.086743198335 -2.1895999908 0.28031998873 -0.27681100368
          3.3688399792 0.28460401297 0.022468499839 3.4734098911 0.21108800173 -0.2205349952
          3.2946200371 0.5 -0.20856200159 3.2970399857 0.30501198769 -0.2939350009
          1.2525800467 -0.23895399272 0.5 1.2566000223 -0.4687319994 0.5
          1.1263699532 -0.31314399838 0.27022001147 1.0404800177 -0.5 0.42839100957
          -3.6195299625 0.18837699294 0.1758890003 -3.776599884 -0.0024208100513 0.27819898725
          -3.5974299908 0.015700999647 0.0042460002005 -3.8818199635 0.0094203203917 -0.0044903801754
          2.8429698944 0.28180000186 -0.27394500375 2.9765999317 0.15742999315 -0.14321500063
          2.6477799416 0.16645799577 -0.17383100092 2.8604700565 0.28147599101 -0.024887500331
          -0.0014522599522 0.5 -0.37516400218 -0.12616600096 0.363714993 -0.5
          -0.25742098689 0.29623898864 -0.3442530036 -0.020521700382 0.27518200874 -0.3097819984
          0.58821898699 0.5 0.18288999796 0.71180897951 0.31379199028 -0.019653400406
          0.56476098299 0.5 -0.044713400304 0.46921399236 0.2665579915 0.056172598153
          -4.3976202011 -0.16255900264 0.25912800431 -4.237349987 -0.30583998561 0.5
          -4.2715802193 -0.32873600721 0.20494799316 -4.3996100426 -0.5 0.31058299541
          -0.93892097473 -0.041356798261 0.5 -0.70620900393 0.037291798741 0.28922000527
          -0.93832302094 -0.045258000493 0.24930199981 -0.70902901888 -0.081924401224 0.5
          2.6540100574 0.30316799879 0.029222900048 2.4481799603 0.24948500097 0.0013240700355
          2.3991000652 0.5 0.11198899895 2.4116399288 0.33501198888 0.26824301481
          -4.2715802193 -0.32873600721 0.20494799316 -4.237349987 -0.30583998561 0.5
          -4.1482901573 -0.5 0.45363500714 -4.3996100426 -0.5 0.31058299541
          -0.18628300726 -0.26750600338 -0.029726099223 -0.169242993 0.019168399274 -0.0072063799016
          -0.014450499788 -0.12391400337 -0.11072800308 -0.014323200099 -0.10396199673 0.093425601721
          -0.30416700244 0.12715099752 0.5 -0.16119599342 0.084271103144 0.32078498602
          -0.16925099492 0.29148900509 0.27573001385 -0.38609901071 0.25310799479 0.3300819993
          3.095690012 0.30450299382 0.0079884901643 3.3688399792 0.28460401297 0.022468499839
          3.2171900272 0.5 -0.054951798171 3.1808700562 0.17408800125 -0.17278499901
          -2.4949100018 0.29038199782 -0.30940899253 -2.6168899536 0.31174701452 -0.5
          -2.6850099564 0.20022499561 -0.22423900664 -2.6483700275 0.13034400344 -0.5
          -2.471460104 0.079349301755 -0.5 -2.6364200115 -0.0513737984 -0.25086298585
          -2.7017800808 -0.045854199678 -0.5 -2.6483700275 0.13034400344 -0.5
          1.142539978 0.300906986 0.29215401411 1.1301300526 0.30475699902 0.5
          0.98735398054 0.096338197589 0.5 0.94293701649 0.27613300085 0.5
          -2.6132099628 -0.29757499695 -0.26779401302 -2.8483600616 -0.1823129952 -0.18523199856
          -2.7003099918 -0.5 -0.15431599319 -2.8245999813 -0.5 -0.29598200321
          -4.0945601463 -0.28051298857 0.31798601151 -4.2407898903 -0.014909300022 0.29183000326
          -4.2715802193 -0.32873600721 0.20494799316 -4.1423802376 -0.18350799382 0.11192400008
          2.3842000961 -0.1629229933 0.5 2.1368100643 -0.22857700288 0.5
          2.2452199459 -0.36571800709 0.5 2.2669200897 -0.32125800848 0.30331799388
          4.794479847 -0.0099189598113 0.26575800776 5 0.029062800109 0.15694400668
          4.7783799171 -0.058915100992 0.015639599413 5 -0.20979200304 0.28537601233
          1.4673299789 -0.16130299866 -0.30513200164 1.2840600014 -0.15874500573 -0.5
          1.3746500015 -0.33837598562 -0.5 1.5757000446 -0.01348510012 -0.5
          -0.0014522599522 0.5 -0.37516400218 -0.020521700382 0.27518200874 -0.3097819984
          -0.26246398687 0.5 -0.27721399069 -0.12392300367 0.5 -0.12977199256
          -4.4012899399 0.03873860091 -0.27101901174 -4.5893697739 -0.027997599915 -0.31035900116
          -4.5986399651 0.089573398232 -0.0050773997791 -4.411260128 -0.00020594299713 -0.0010824199999
          -4.2580599785 -0.5 -0.032561998814 -4.3720297813 -0.5 0.12119200081
          -4.439789772 -0.27735000849 -0.054897699505 -4.2342700958 -0.2943969965 -0.036790598184
          -2.0084600449 0.5 0.30924999714 -1.8121700287 0.32682698965 0.085832998157
          -1.9560199976 0.18910500407 0.17773799598 -1.8209400177 0.5 0.2201499939
          -4.5893697739 -0.027997599915 -0.31035900116 -4.7847399712 0.018612299114 -0.27819800377
          -4.5744199753 0.044033199549 -0.5 -4.6261501312 0.17262099683 -0.1935839951
          2.9282898903 0.5 -0.19310599566 2.8296399117 0.5 -0.49776399136
          2.8429698944 0.28180000186 -0.27394500375 3.0176899433 0.33451101184 -0.5
          2.6561300755 0.37442401052 -0.5 2.8429698944 0.28180000186 -0.27394500375
          2.8296399117 0.5 -0.49776399136 2.7815999985 0.20081700385 -0.5
          -2.6651101112 0.18645100296 0.5 -2.6128799915 0.13250499964 0.27421799302
          -2.5157299042 -0.098369702697 0.5 -2.4325098991 0.0032291798852 0.31787699461
          -3.8539500237 0.5 0.19824199378 -3.8746600151 0.5 0.47712299228
          -3.8861699104 0.22745600343 0.24729199708 -4.1248002052 0.32227998972 0.33130601048
          4.3579602242 -0.5 -0.20988300443 4.4999699593 -0.30107301474 -0.267922014
          4.4281401634 -0.5 -0.37787801027 4.5304999352 -0.5 -0.15178099275
          0.75085902214 -0.045475300401 0.28253901005 0.46630200744 0.046083901078 0.25881299376
          0.81075197458 0.14764200151 0.31798198819 0.5860620141 0.083102703094 0.5
          -4.0616898537 0.31015700102 -0.5 -3.8300800323 0.22917799652 -0.5
          -3.8989500999 0.24744200706 -0.23554000258 -3.8885200024 0.43526899815 -0.5
          0.33892700076 0.20277099311 0.5 0.15341800451 0.023780800402 0.5
          0.2923809886 -0.092951200902 0.5 0.25244501233 -0.012676700018 0.29410201311
          -2.6651101112 0.18645100296 0.5 -2.8798100948 0.024562800303 0.5
          -2.7145900726 -0.082542397082 0.279302001 -2.6128799915 0.13250499964 0.27421799302
          -0.21006199718 -0.066769301891 -0.5 -0.1279810071 -0.26361098886 -0.5
          -0.11357299984 -0.14485199749 -0.33142700791 -0.01470979955 -0.077135197818 -0.5
          3.6745901108 -0.5 -0.024972600862 3.8334798813 -0.29951399565 -0.035472199321
          3.6450901031 -0.17131699622 -0.19211299717 3.7846400738 -0.3112359941 -0.2879639864
          1.71875 0.012455300428 0.32105600834 1.6337100267 -0.2680259943 0.5
          1.5849699974 -0.077601596713 0.5 1.8240200281 -0.074077397585 0.5
          3.095690012 0.30450299382 0.0079884901643 2.8604700565 0.28147599101 -0.024887500331
          2.9765999317 0.15742999315 -0.14321500063 3.0563700199 0.30440598726 -0.29042899609
          -0.77074998617 -0.30250000954 -0.3132340014 -1.1352299452 -0.30921301246 -0.27610599995
          -0.93913400173 -0.20071199536 -0.20192199945 -0.86342602968 -0.5 -0.2539960146
          2.6206200123 0.32416799664 0.30228099227 2.7771201134 0.5 0.34628498554
          2.6293599606 0.5 0.17279799283 2.8141000271 0.33296000957 0.21601100266
          4.1275501251 -0.15113399923 0.5 4.2926101685 0.022265100852 0.30176800489
          4.2901201248 -0.17937499285 0.5 4.2180900574 0.013842199929 0.5
          -0.012120299973 -0.32062399387 0.28174200654 -0.17885400355 -0.17817400396 0.19088800251
          -0.014323200099 -0.10396199673 0.093425601721 0.028599999845 -0.025005400181 0.30730199814
          -2.6651101112 0.18645100296 0.5 -2.8798100948 0.024562800303 0.5
          -2.5157299042 -0.098369702697 0.5 -2.7145900726 -0.082542397082 0.279302001
          -1.4028999805 0.13422000408 0.12791000307 -1.2951300144 0.045372098684 -0.065485596657
          -1.3192800283 -0.11339899898 0.070827797055 -1.1438100338 0.013993400149 0.21154500544
          -2.0675001144 -0.32273799181 0.069159403443 -2.187210083 -0.061865199357 0.039609499276
          -2.1809399128 -0.24249899387 0.24300700426 -2.2719900608 -0.32766199112 0.080448098481
          -4.0945601463 -0.28051298857 0.31798601151 -4.2407898903 -0.014909300022 0.29183000326
          -4.3976202011 -0.16255900264 0.25912800431 -4.2715802193 -0.32873600721 0.20494799316
          3.3437099457 0.5 0.098416596651 3.2171900272 0.5 -0.054951798171
          3.095690012 0.30450299382 0.0079884901643 3.3688399792 0.28460401297 0.022468499839
          4.3434801102 -0.13885499537 0.17381000519 4.5015702248 0.045086801052 0.27461698651
          4.5567698479 0.040265500546 -0.029345599934 4.6710700989 -0.19623799622 0.19057400525
          -1.5214099884 -0.5 0.34752699733 -1.6324599981 -0.5 0.14717400074
          -1.7268799543 -0.26261898875 0.29539200664 -1.7145800591 -0.5 0.30908799171
          -3.177740097 0.19153399765 0.19352599978 -2.8607199192 0.16806200147 0.1988620013
          -3.119879961 0.056279499084 0.0078261103481 -2.9183399677 -0.016215600073 0.29276099801
          -0.12994900346 0.14103500545 -0.5 -0.39605501294 0.24562799931 -0.5
          -0.25742098689 0.29623898864 -0.3442530036 -0.36137199402 0.054711200297 -0.5
          -1.728489995 -0.2819840014 0.029070099816 -1.6324599981 -0.5 0.14717400074
          -1.5899200439 -0.5 -0.14776800573 -1.7730799913 -0.5 -0.18303699791
          2.3991000652 0.5 0.11198899895 2.1185901165 0.5 0.19517299533
          2.4116399288 0.33501198888 0.26824301481 2.2155299187 0.29384601116 -0.016047000885
          -1.7749300003 -0.093701399863 0.5 -1.9165099859 0.082864999771 0.5
          -1.9649800062 -0.0049698902294 0.29592001438 -1.8168400526 0.14203999937 0.32622399926
          -1.3521399498 -0.29692700505 -0.29181501269 -1.4707000256 -0.5 -0.29291000962
          -1.3853499889 -0.5 -0.1261779964 -1.2733399868 -0.5 -0.29207199812
          -0.70620900393 0.037291798741 0.28922000527 -0.87598198652 -0.27951401472 0.27214699984
          -0.65928399563 -0.29948800802 0.30083200336 -0.74051898718 -0.13983599842 0.1276730001
          0.23762199283 -0.5 0.14814600348 0.36774501204 -0.27583301067 0.050296399742
          0.40799000859 -0.5 0.24458500743 0.37961798906 -0.27483201027 0.3045360148
          0.65357899666 -0.5 0.40985101461 0.44613900781 -0.5 0.42994099855
          0.59722298384 -0.5 0.24278099835 0.53568398952 -0.32191199064 0.5
          0.77794498205 -0.5 0.24261300266 0.65357899666 -0.5 0.40985101461
          0.59722298384 -0.5 0.24278099835 0.7291790247 -0.29900100827 0.29153800011
          -0.94314199686 -0.25431698561 0.040656600147 -1.0007799864 -0.5 -0.1113319993
          -0.91965401173 -0.5 0.069327197969 -0.79164099693 -0.5 -0.074961297214
          -1.0519599915 0.24375100434 -0.5 -1.1753100157 0.18597100675 -0.21642799675
          -0.92764699459 0.27740699053 -0.26456698775 -1.0471099615 0.090339496732 -0.5
          -3.7068300247 -0.31349000335 0.29142400622 -3.725509882 -0.28060400486 0.5
          -3.5796399117 -0.036828301847 0.30965799093 -3.5133900642 -0.13522699475 0.5
          0.56476098299 0.5 -0.044713400304 0.46921399236 0.2665579915 0.056172598153
          0.27108699083 0.5 -0.08351060003 0.27400401235 0.5 0.12896299362
          -0.47644600272 0.21734400094 -0.22011299431 -0.61564701796 0.5 -0.067553699017
          -0.47131600976 0.32570299506 -0.023170199245 -0.68140697479 0.28639298677 -0.28938999772
          -1.5764600039 0.36043098569 -0.5 -1.6463500261 0.28474900126 -0.30618798733
          -1.4210100174 0.5 -0.29471999407 -1.3414299488 0.2976360023 -0.30167099833
          -0.22633899748 -0.5 0.0026503999252 -0.30116099119 -0.5 -0.18737800419
          -0.42740899324 -0.30482000113 -0.02907329984 -0.3753170073 -0.5 0.14234599471
          0.6344910264 0.5 0.40687701106 0.45764601231 0.28433001041 0.29305499792
          0.41966900229 0.5 0.38582900167 0.57046198845 0.31609800458 0.5
          -3.5521500111 0.0046129701659 -0.5 -3.7030899525 -0.27636900544 -0.5
          -3.7646200657 -0.015583699569 -0.5 -3.5893199444 0.032997198403 -0.29434099793
          -5 -0.49631300569 0.38468599319 -4.7161898613 -0.5 0.43861299753
          -4.794549942 -0.32775598764 0.30355900526 -4.8312702179 -0.5 0.1501930058
          -0.14947299659 -0.5 -0.13736000657 -0.18628300726 -0.26750600338 -0.029726099223
          0.10427799821 -0.31776800752 -0.01549869962 -0.035155199468 -0.5 0.074470199645
          3.5066199303 0.45685198903 0.5 3.3330900669 0.5 0.31517699361
          3.353579998 0.25871399045 0.31244799495 3.5264201164 0.5 0.31256499887
          2.4428100586 0.10961800069 0.26388600469 2.2194900513 -0.0036427800078 0.3248629868
          2.3315200806 0.075631901622 0.5 2.3842000961 -0.1629229933 0.5
          -4.022600174 -0.31765198708 -0.031538199633 -3.8897199631 -0.5 0.01333339978
          -3.7506599426 -0.28654700518 -0.026961300522 -3.8106400967 -0.5 -0.18066500127
          -0.55561101437 -0.26461198926 0.5 -0.28134599328 -0.29646700621 0.5
          -0.29698100686 -0.33138298988 0.28727200627 -0.38991400599 -0.43623900414 0.5
          4.5567698479 0.040265500546 -0.029345599934 4.373770237 0.29578301311 -0.0035506200511
          4.3127498627 0.19265699387 0.16710400581 4.317220211 0.013630899601 -0.032561101019
          -3.5694301128 0.5 -0.27657601237 -3.2857298851 0.5 -0.18894700706
          -3.4697299004 0.28407201171 -0.298379004 -3.5453898907 0.5 0.00052557198796
          0.33892700076 0.20277099311 0.5 0.083770796657 0.16607399285 0.5
          0.15341800451 0.023780800402 0.5 0.25244501233 -0.012676700018 0.29410201311
          -1.3560899496 -0.21440200508 0.5 -1.334980011 -0.066682696342 0.27562999725
          -1.1465300322 -0.23797599971 0.5 -1.2071299553 -0.056219801307 0.5
          -1.1465300322 -0.23797599971 0.5 -1.334980011 -0.066682696342 0.27562999725
          -1.1246000528 -0.21291700006 0.24169400334 -1.2071299553 -0.056219801307 0.5
          -2.6367399693 0.26534798741 0.078260503709 -2.6441700459 0.0031107501127 0.0051095401868
          -2.5539898872 0.16441999376 -0.075327299535 -2.8699100018 0.034952599555 0.013808799908
          -4.2864198685 0.30046600103 -0.30744600296 -4.2389798164 0.42935600877 -0.5
          -4.1164798737 0.5 -0.23297099769 -4.4078397751 0.5 -0.27026000619
          0.94293701649 0.27613300085 0.5 0.7305060029 0.19254399836 0.5
          0.81075197458 0.14764200151 0.31798198819 0.76468199492 0.37051400542 0.5
          -1.9215400219 -0.19377499819 0.17684599757 -1.9655499458 0.017111200839 0.015656199306
          -2.0675001144 -0.32273799181 0.069159403443 -1.9544999599 -0.19884000719 -0.16746899486
          -1.8413699865 0.28546500206 0.5 -2.0084600449 0.5 0.30924999714
          -1.7108399868 0.45766401291 0.5 -2.011950016 0.41811999679 0.5
          0.27028900385 -0.5 -0.35754400492 0.29461199045 -0.27944099903 -0.5
          0.52369099855 -0.25701698661 -0.29001700878 0.27188199759 -0.21608300507 -0.19496400654
          4.4943199158 0.06769169867 -0.29010298848 4.7124700546 0.20787400007 -0.21475000679
          4.7696099281 -0.016697799787 -0.29300200939 4.5567698479 0.040265500546 -0.029345599934
          -0.11357299984 -0.14485199749 -0.33142700791 -0.01470979955 -0.077135197818 -0.5
          0.084536299109 -0.24571800232 -0.5 0.02034159936 -0.29206499457 -0.27554398775
          2.4428100586 0.10961800069 0.26388600469 2.6219000816 -0.015453300439 0.30282199383
          2.5668699741 -0.11371900141 0.5 2.5758199692 0.075252600014 0.5
          -0.1279810071 -0.26361098886 -0.5 -0.46434998512 -0.23358699679 -0.5
          -0.21006199718 -0.066769301891 -0.5 -0.29398798943 -0.19200000167 -0.2282319963
          3.6361598969 -0.5 0.14722600579 3.5110299587 -0.5 0.32628598809
          3.4722599983 -0.22174499929 0.20733100176 3.678839922 -0.28315201402 0.29635599256
          -0.70035898685 -0.45424199104 0.5 -0.55561101437 -0.26461198926 0.5
          -0.48325100541 -0.5 0.32274898887 -0.38991400599 -0.43623900414 0.5
          4.4995098114 -0.5 0.058421999216 4.34815979 -0.5 0.30085599422
          4.296959877 -0.5 0.12259899825 4.4824900627 -0.2778429985 0.28902798891
          3.4722599983 -0.22174499929 0.20733100176 3.424779892 -0.5 0.16588500142
          3.4506099224 -0.25270500779 -0.04623780027 3.3018300533 -0.5 0.031524900347
          -0.71377199888 0.30195298791 0.28811401129 -0.7510010004 0.25560700893 0.5
          -0.86464500427 0.18405400217 0.1796399951 -0.92035800219 0.31782001257 0.33497199416
          -1.3444800377 -0.30236798525 0.28137201071 -1.5047199726 -0.5 0.018165400252
          -1.2431999445 -0.5 0.20165300369 -1.3964400291 -0.3062709868 0.030771600083
          1.8388400078 -0.37851500511 0.5 1.8518699408 -0.5 0.28856000304
          1.8512899876 -0.25720700622 0.29749301076 1.6531300545 -0.5 0.42902299762
          4.3434801102 -0.13885499537 0.17381000519 4.5015702248 0.045086801052 0.27461698651
          4.2926101685 0.022265100852 0.30176800489 4.3127498627 0.19265699387 0.16710400581
          3.099050045 -0.07797460258 -0.5 3.120470047 -0.021967599168 -0.27757799625
          3.1227400303 -0.30917099118 -0.31313300133 2.9589400291 -0.2156240046 -0.5
          -0.70620900393 0.037291798741 0.28922000527 -0.96254199743 0.19088900089 0.5
          -0.92035800219 0.31782001257 0.33497199416 -0.7510010004 0.25560700893 0.5
          -4.1456699371 -0.049980100244 -0.5 -4.0346798897 -0.02448659949 -0.29127898812
          -4.2221798897 -0.17677399516 -0.20671699941 -4.4012899399 0.03873860091 -0.27101901174
          4.1193199158 0.19485099614 0.5 4.2180900574 0.013842199929 0.5
          4.2926101685 0.022265100852 0.30176800489 4.0886101723 0.063145399094 0.2613709867
          4.0785198212 0.2688550055 0.022481000051 3.9115200043 0.5 0.15832599998
          3.867939949 0.29484701157 -0.023631099612 4.0127902031 0.5 -0.00039253599243
          4.1898999214 0.32223001122 -0.31539100409 4.1566100121 -0.01251959987 -0.28246301413
          4.2942700386 0.099316298962 -0.5 4.1314902306 0.23748099804 -0.5
          -4.2751197815 0.5 0.02419850044 -4.2024998665 0.29241999984 0.027058599517
          -4.3864398003 0.25989100337 -0.089046299458 -4.5506501198 0.30194398761 0.066922001541
          -1.3444800377 -0.30236798525 0.28137201071 -1.5496799946 -0.11574400216 0.5
          -1.3560899496 -0.21440200508 0.5 -1.637830019 -0.34564900398 0.5
          -1.4028999805 0.13422000408 0.12791000307 -1.6647800207 0.24374599755 0.22540199757
          -1.5096600056 -0.035843800753 0.024828599766 -1.5486299992 0.27752000093 0.017110800371
          -2.4208400249 -0.17098300159 -0.17608100176 -2.5989000797 -0.16783699393 -0.5
          -2.6364200115 -0.0513737984 -0.25086298585 -2.6132099628 -0.29757499695 -0.26779401302
          1.4243400097 -0.5 0.34605500102 1.1263699532 -0.31314399838 0.27022001147
          1.2694100142 -0.5 0.16097800434 1.3733700514 -0.33255699277 0.11544699967
          -4.1479997635 0.1524810046 0.18773500621 -4.2659602165 0.28228399158 0.5
          -4.1248002052 0.32227998972 0.33130601048 -4.1556100845 0.12476799637 0.5
          -0.38609901071 0.25310799479 0.3300819993 -0.54225701094 0.182366997 0.5
          -0.71377199888 0.30195298791 0.28811401129 -0.46542999148 0.5 0.387439996
          -0.042902801186 0.13622699678 0.15243600309 0.057354498655 0.2768329978 0.30196899176
          -0.16925099492 0.29148900509 0.27573001385 -0.021123599261 0.2901929915 -0.037268299609
          -0.92764699459 0.27740699053 -0.26456698775 -0.96304500103 0.042934101075 -0.20367699862
          -0.7856760025 -0.061230801046 -0.29652500153 -0.89940702915 0.048585001379 -0.5
          -2.4248900414 -0.10110799968 -0.5 -2.3032701015 -0.32206401229 -0.5
          -2.4834799767 -0.27802801132 -0.5 -2.2611498833 -0.21604500711 -0.31563100219
          -0.63522601128 -0.32412400842 -0.5 -0.56736600399 -0.5 -0.39558899403
          -0.77074998617 -0.30250000954 -0.3132340014 -0.47420999408 -0.29338499904 -0.29220598936
          3.9538800716 -0.19349299371 -0.21224999428 3.92689991 -0.25916099548 -0.5
          4.0967798233 -0.21491999924 -0.5 3.9156999588 -0.083973996341 -0.5
          -0.7581089735 -0.15487499535 -0.5 -0.77074998617 -0.30250000954 -0.3132340014
          -0.7856760025 -0.061230801046 -0.29652500153 -0.59533298016 -0.13490399718 -0.5
          0.19322299957 -0.078569203615 -0.5 0.086851902306 0.090062998235 -0.5
          0.17147399485 -0.046462800354 -0.28626099229 -0.01470979955 -0.077135197818 -0.5
          -0.020521700382 0.27518200874 -0.3097819984 -0.12994900346 0.14103500545 -0.5
          -0.25742098689 0.29623898864 -0.3442530036 -0.18946300447 0.17974199355 -0.1773750037
          -3.4066801071 0.46902000904 -0.5 -3.2381598949 0.5 -0.3880290091
          -3.3607699871 0.21685799956 -0.5 -3.4697299004 0.28407201171 -0.298379004
          -3.4697299004 0.28407201171 -0.298379004 -3.2857298851 0.5 -0.18894700706
          -3.2586500645 0.20448499918 -0.21992500126 -3.3652899265 0.29221200943 0.018539199606
          1.8424299955 0.5 0.20660300553 2.0367600918 0.30077698827 0.30471900105
          2.1185901165 0.5 0.19517299533 1.9609899521 0.27691298723 0.076514601707
          -1.8138200045 -0.5 0.13895599544 -2.0675001144 -0.32273799181 0.069159403443
          -2.03008008 -0.5 0.23870000243 -1.8892199993 -0.5 -0.034159000963
          -1.9522600174 -0.011583000422 -0.29229301214 -2.0815498829 -0.33450999856 -0.28891399503
          -1.9544999599 -0.19884000719 -0.16746899486 -1.890920043 -0.16450600326 -0.5
          -0.29398798943 -0.19200000167 -0.2282319963 -0.6270070076 -0.18018999696 -0.18880400062
          -0.47420999408 -0.29338499904 -0.29220598936 -0.46267700195 -0.020818000659 -0.27643701434
          3.1227400303 -0.30917099118 -0.31313300133 3.120470047 -0.021967599168 -0.27757799625
          3.2362499237 -0.1912920028 -0.17273800075 2.9524600506 -0.22408300638 -0.21185599267
          -0.78096401691 -0.28885498643 -0.091540999711 -1.0007799864 -0.5 -0.1113319993
          -0.94314199686 -0.25431698561 0.040656600147 -0.79164099693 -0.5 -0.074961297214
          3.1408400536 -0.26990801096 0.5 2.9692099094 -0.18215200305 0.27709600329
          2.9103798866 -0.24695399404 0.5 3.0828099251 -0.5 0.29510200024
          3.5255100727 0.5 -0.16535499692 3.3688399792 0.28460401297 0.022468499839
          3.3437099457 0.5 0.098416596651 3.541369915 0.5 0.1197900027
          4.289440155 0.31779500842 -0.5 4.2944598198 0.20695400238 -0.17472800612
          4.1898999214 0.32223001122 -0.31539100409 4.501060009 0.27867999673 -0.21826599538
          1.0667099953 0.30986699462 -0.00099666800816 0.71180897951 0.31379199028 -0.019653400406
          0.89332699776 0.23076300323 -0.16234900057 0.85752302408 0.5 0.012258999981
          -1.1753100157 0.18597100675 -0.21642799675 -1.0750999451 -0.011404699646 0.007108009886
          -0.96304500103 0.042934101075 -0.20367699862 -1.1722400188 -0.078797601163 -0.24050499499
          -0.12994900346 0.14103500545 -0.5 -0.25742098689 0.29623898864 -0.3442530036
          -0.24800799787 0.0088232699782 -0.29918900132 -0.36137199402 0.054711200297 -0.5
          3.4734098911 0.21108800173 -0.2205349952 3.2905800343 0.095524303615 -0.3324739933
          3.4302000999 -0.042014900595 -0.25968700647 3.4120700359 0.12526200712 -0.5
          4.2770299911 0.5 0.17181399465 4.1836500168 0.5 0.32843101025
          4.1333699226 0.29578199983 0.28484800458 4.0968198776 0.5 0.16808399558
          -2.8269600868 0.33847901225 0.099728599191 -2.6367399693 0.26534798741 0.078260503709
          -2.8308598995 0.31636199355 -0.103422001 -2.8699100018 0.034952599555 0.013808799908
          -3.1584899426 -0.5 -0.16631600261 -3.1692500114 -0.17956000566 -0.18042400479
          -3.406719923 -0.26567399502 -0.27803298831 -3.3308799267 -0.5 -0.28216999769
          3.4734098911 0.21108800173 -0.2205349952 3.4346001148 0.010584499687 0.0013051299611
          3.6228199005 0.064896397293 -0.30187800527 3.4302000999 -0.042014900595 -0.25968700647
          -3.7156999111 0.29170098901 -0.33228498697 -3.7646200657 -0.015583699569 -0.5
          -3.6169199944 0.2079769969 -0.5 -3.8300800323 0.22917799652 -0.5
          3.6606800556 0.057222399861 0.047008000314 3.8265800476 -0.00065459497273 0.32086899877
          3.7557299137 -0.14269599319 0.12685400248 3.6032299995 -0.0550327003 0.29886201024
          -3.3868999481 0.28687500954 0.25560098886 -3.475399971 0.5 0.31425100565
          -3.3576700687 0.44374600053 0.5 -3.4394900799 0.2320100069 0.5
          1.0750000477 -0.14948399365 0.12495800108 1.0831899643 -0.026730500162 0.28337299824
          1.2553399801 0.02869570069 -0.044535700232 1.298789978 -0.15092399716 0.16408100724
          -4.0830402374 0.30948498845 -0.29728299379 -4.1164798737 0.5 -0.23297099769
          -4.0201997757 0.5 0.0039351000451 -3.9890100956 0.24387900531 0.0062287501059
          -3.4697299004 0.28407201171 -0.298379004 -3.6169199944 0.2079769969 -0.5
          -3.5893199444 0.032997198403 -0.29434099793 -3.5521500111 0.0046129701659 -0.5
          -2.8101699352 -0.5 0.047830801457 -2.9412100315 -0.31262499094 -0.011466300115
          -2.7003099918 -0.5 -0.15431599319 -2.6965899467 -0.25478899479 0.070601798594
          -4.6633000374 0.5 0.39759600163 -4.9243597984 0.5 0.31349301338
          -4.7674899101 0.33730000257 0.27226099372 -4.6425299644 0.5 0.1688580066
          -1.0519599915 0.24375100434 -0.5 -1.2071399689 0.32934400439 -0.5
          -1.1753100157 0.18597100675 -0.21642799675 -1.2034000158 0.121028997 -0.5
          3.4722599983 -0.22174499929 0.20733100176 3.4346001148 0.010584499687 0.0013051299611
          3.4506099224 -0.25270500779 -0.04623780027 3.6328399181 -0.30484598875 0.056098300964
          -2.9183399677 -0.016215600073 0.29276099801 -3.012720108 0.29143700004 0.30083501339
          -2.8798100948 0.024562800303 0.5 -3.1307299137 0.1212079972 0.5
          -3.1326100826 -0.026751099154 0.30142500997 -3.012720108 0.29143700004 0.30083501339
          -2.9183399677 -0.016215600073 0.29276099801 -3.1307299137 0.1212079972 0.5
          2.8141000271 0.33296000957 0.21601100266 2.6293599606 0.5 0.17279799283
          2.6206200123 0.32416799664 0.30228099227 2.6540100574 0.30316799879 0.029222900048
          0.15296399593 -0.18104599416 0.18370200694 0.2199189961 -0.15206000209 -0.010414100252
          0.36774501204 -0.27583301067 0.050296399742 0.3798109889 -0.11770299822 0.17650899291
          -1.0093300343 -0.26582100987 -0.5 -1.1371999979 -0.5 -0.43496501446
          -0.86342602968 -0.5 -0.2539960146 -0.7991899848 -0.42665201426 -0.5
          0.57046198845 0.31609800458 0.5 0.69564402103 0.31359699368 0.28978401423
          0.5860620141 0.083102703094 0.5 0.7305060029 0.19254399836 0.5
          1.1263699532 -0.31314399838 0.27022001147 0.89871001244 -0.21273000538 0.19672900438
          1.1665500402 -0.30232200027 0.032807700336 1.0750000477 -0.14948399365 0.12495800108
          2.7243199348 -0.5 0.48583400249 2.4503700733 -0.5 0.32925000787
          2.6250600815 -0.5 0.26846000552 2.4968700409 -0.3149009943 0.5
          3.4120700359 0.12526200712 -0.5 3.4734098911 0.21108800173 -0.2205349952
          3.6057898998 0.18472599983 -0.5 3.6228199005 0.064896397293 -0.30187800527
          0.16357299685 0.41697001457 -0.5 0.20413899422 0.23499399424 -0.5
          -0.12616600096 0.363714993 -0.5 -0.020521700382 0.27518200874 -0.3097819984
          4.3479599953 -0.069560296834 -0.31158301234 4.317220211 0.013630899601 -0.032561101019
          4.3278198242 -0.19421100616 -0.1541839987 4.1566100121 -0.01251959987 -0.28246301413
          -3.2857298851 0.5 -0.18894700706 -3.3652899265 0.29221200943 0.018539199606
          -3.5453898907 0.5 0.00052557198796 -3.2138299942 0.5 0.12549799681
          2.7243199348 -0.5 0.48583400249 2.3865699768 -0.46860298514 0.5
          2.4503700733 -0.5 0.32925000787 2.4968700409 -0.3149009943 0.5
          4.0863099098 -0.5 0.17567700148 4.3140602112 -0.30338901281 0.040695600212
          4.2311301231 -0.28602001071 0.30712598562 4.1160001755 -0.25597798824 -0.023964699358
          -4.0139598846 -0.2127609998 -0.5 -3.889359951 -0.35665598512 -0.5
          -4.1110301018 -0.5 -0.40642899275 -4.0849199295 -0.30423098803 -0.31639400125
          1.0404800177 -0.5 0.084503702819 0.89871001244 -0.21273000538 0.19672900438
          0.77794498205 -0.5 0.24261300266 0.78195297718 -0.29943698645 0.031285099685
          3.1938300133 0.27075499296 0.5 3.3009901047 0.050491899252 0.5
          3.1743099689 -0.022352099419 0.31030499935 3.0548899174 -0.0057386700064 0.5
          2.5758199692 0.075252600014 0.5 2.5668699741 -0.11371900141 0.5
          2.4428100586 0.10961800069 0.26388600469 2.3315200806 0.075631901622 0.5
          -0.40286201239 -0.0046954802237 -0.0054140798748 -0.18628300726 -0.26750600338 -0.029726099223
          -0.42740899324 -0.30482000113 -0.02907329984 -0.17885400355 -0.17817400396 0.19088800251
          -3.1171200275 -0.32041800022 0.23436300457 -3.0034298897 -0.12146800011 0.11256500334
          -3.1703898907 -0.28369298577 0.029881799594 -2.9412100315 -0.31262499094 -0.011466300115
          -1.5297700167 -0.41840699315 -0.5 -1.6403199434 -0.1704210043 -0.5
          -1.6529099941 -0.5 -0.32333600521 -1.7048399448 -0.4852539897 -0.5
          -0.96304500103 0.042934101075 -0.20367699862 -1.0750999451 -0.011404699646 0.007108009886
          -0.81901800632 -0.064964897931 -0.069114297628 -0.93913400173 -0.20071199536 -0.20192199945
          1.0786999464 -0.15874500573 -0.5 0.93065899611 -0.030296299607 -0.23989999294
          0.89200401306 -0.15874500573 -0.5 1.0077899694 0.013961300254 -0.5
          -4.7847399712 0.018612299114 -0.27819800377 -4.6675601006 -0.16073800623 -0.17753699422
          -4.5893697739 -0.027997599915 -0.31035900116 -4.7819399834 -0.28898400068 -0.32071700692
          0.57046198845 0.31609800458 0.5 0.33892700076 0.20277099311 0.5
          0.45764601231 0.28433001041 0.29305499792 0.41966900229 0.5 0.38582900167
          -2.6965899467 -0.25478899479 0.070601798594 -2.7104799747 -0.5 0.29420700669
          -2.6140599251 -0.2892279923 0.31681698561 -2.5808300972 -0.5 0.066097401083
          4.6631398201 0.058381199837 -0.5 4.7124700546 0.20787400007 -0.21475000679
          4.7696099281 -0.016697799787 -0.29300200939 4.4943199158 0.06769169867 -0.29010298848
          -3.7612600327 0.27116200328 0.015408799984 -3.9890100956 0.24387900531 0.0062287501059
          -3.8539500237 0.5 0.19824199378 -3.8861699104 0.22745600343 0.24729199708
          -0.085543900728 0.5 0.4370740056 -0.31256601214 0.5 0.24124599993
          -0.29334101081 0.37132000923 0.5 -0.16925099492 0.29148900509 0.27573001385
          -1.4028300047 -0.15640300512 -0.13328300416 -1.670410037 -0.23073199391 -0.21768200397
          -1.5899200439 -0.5 -0.14776800573 -1.3521399498 -0.29692700505 -0.29181501269
          -3.8540000916 -0.5 0.28207299113 -4.0987300873 -0.5 0.24074499309
          -4.0945601463 -0.28051298857 0.31798601151 -3.9475998878 -0.42686000466 0.5
          4.289440155 0.31779500842 -0.5 4.2944598198 0.20695400238 -0.17472800612
          4.501060009 0.27867999673 -0.21826599538 4.4979701042 0.25243699551 -0.5
          1.9453500509 -0.087545797229 -0.2573390007 1.8725500107 0.093445502222 -0.32259699702
          1.6074999571 0.030789300799 -0.26509699225 1.785670042 0.036040998995 -0.5
          -1.9560199976 0.18910500407 0.17773799598 -1.9655499458 0.017111200839 0.015656199306
          -1.730610013 -0.00066968100145 -0.0049977498129 -1.8121700287 0.32682698965 0.085832998157
          3.8543400764 -0.043197199702 -0.061682298779 3.6606800556 0.057222399861 0.047008000314
          3.9352300167 -0.034624699503 0.14412599802 3.7557299137 -0.14269599319 0.12685400248
          3.3018300533 -0.5 0.38916900754 3.0828099251 -0.5 0.29510200024
          3.2869899273 -0.28170898557 0.32561299205 3.1408400536 -0.26990801096 0.5
          -2.6965899467 -0.25478899479 0.070601798594 -3.0034298897 -0.12146800011 0.11256500334
          -2.9220399857 -0.26491099596 0.30408999324 -2.9412100315 -0.31262499094 -0.011466300115
          -1.4892100096 0.17613700032 -0.19808200002 -1.7420699596 0.2584669888 -0.11043199897
          -1.730610013 -0.00066968100145 -0.0049977498129 -1.7309900522 0.022700900212 -0.2696749866
          4.039850235 -0.20272299647 0.21478900313 3.8753499985 -0.34310999513 0.22761000693
          4.0863099098 -0.5 0.17567700148 4.1160001755 -0.25597798824 -0.023964699358
          0.75085902214 -0.045475300401 0.28253901005 0.58827602863 -0.023083500564 0.03204099834
          0.69335997105 0.13933600485 0.14205299318 0.46630200744 0.046083901078 0.25881299376
          0.71499300003 0.033225100487 -0.28708100319 0.70115399361 -0.13068500161 -0.12672199309
          0.52369099855 -0.25701698661 -0.29001700878 0.48660299182 -0.097960598767 -0.14581799507
          3.7148199081 0.013914800249 -0.5 3.9046399593 0.029231099412 -0.28819599748
          3.7777900696 0.29186201096 -0.5 3.9944400787 0.12515999377 -0.5
          0.50762802362 0.094153903425 -0.5 0.71499300003 0.033225100487 -0.28708100319
          0.5808069706 -0.057113301009 -0.5 0.3679780066 0.042948998511 -0.26218301058
          -2.8274400234 0.051215600222 -0.3225030005 -3.0067799091 -0.070524998009 -0.1112980023
          -3.0681700706 -0.022411899641 -0.31216698885 -2.9755399227 0.12714900076 -0.1661580056
          -0.33964401484 -0.12936100364 0.5 -0.10500200093 -0.014513599686 0.5
          -0.30416700244 0.12715099752 0.5 -0.16119599342 0.084271103144 0.32078498602
          3.2946200371 0.5 -0.20856200159 3.2970399857 0.30501198769 -0.2939350009
          3.4734098911 0.21108800173 -0.2205349952 3.5255100727 0.5 -0.16535499692
          -1.2951300144 0.045372098684 -0.065485596657 -1.4028300047 -0.15640300512 -0.13328300416
          -1.1855100393 -0.25224798918 -0.0140108997 -1.1722400188 -0.078797601163 -0.24050499499
          2.4395799637 -0.026134699583 0.038382198662 2.1986699104 0.16770100594 0.18445199728
          2.4428100586 0.10961800069 0.26388600469 2.2194900513 -0.0036427800078 0.3248629868
          -4.6675601006 -0.16073800623 -0.17753699422 -4.6226601601 -0.13244700432 -0.5
          -4.7819399834 -0.28898400068 -0.32071700692 -4.4539299011 -0.1930360049 -0.27674099803
          -3.0080699921 0.29238799214 0.028416100889 -2.9498999119 0.5 -0.14169600606
          -3.1328499317 0.5 -0.05846099928 -3.0582199097 0.31288200617 -0.29153999686
          4.1898999214 0.32223001122 -0.31539100409 4.2944598198 0.20695400238 -0.17472800612
          4.2976098061 0.5 -0.16453999281 4.501060009 0.27867999673 -0.21826599538
          3.4916698933 -0.37139999866 -0.5 3.4532198906 -0.27570098639 -0.28086999059
          3.4290299416 -0.5 -0.34937500954 3.190030098 -0.22524799407 -0.5
          3.1800200939 0.15828900039 0.1766680032 3.3886699677 0.01943529956 0.25713300705
          3.4346001148 0.010584499687 0.0013051299611 3.1624600887 -0.015569499694 -0.02179059945
          3.1624600887 -0.015569499694 -0.02179059945 3.1808700562 0.17408800125 -0.17278499901
          3.1800200939 0.15828900039 0.1766680032 3.095690012 0.30450299382 0.0079884901643
          2.0716900826 -0.38688901067 0.5 1.8388400078 -0.37851500511 0.5
          2.0565500259 -0.31903299689 0.2972239852 1.9660799503 -0.216049999 0.5
          4.0968198776 0.5 0.16808399558 3.9605000019 0.5 0.34884899855
          4.1836500168 0.5 0.32843101025 4.1333699226 0.29578199983 0.28484800458
          4.3918099403 0.5 0.31080400944 4.1836500168 0.5 0.32843101025
          4.1333699226 0.29578199983 0.28484800458 4.2770299911 0.5 0.17181399465
          3.1475300789 -0.43508601189 -0.5 3.1227400303 -0.30917099118 -0.31313300133
          2.9589400291 -0.2156240046 -0.5 3.190030098 -0.22524799407 -0.5
          -3.012720108 0.29143700004 0.30083501339 -2.9205000401 0.31499001384 0.5
          -2.8798100948 0.024562800303 0.5 -3.1307299137 0.1212079972 0.5
          -3.012720108 0.29143700004 0.30083501339 -3.0836999416 0.5 0.28708401322
          -2.8708798885 0.5 0.40537801385 -2.9205000401 0.31499001384 0.5
          -3.0562400818 -0.17835299671 0.5 -3.1145401001 -0.33741301298 0.5
          -2.9936599731 -0.45610100031 0.5 -2.9220399857 -0.26491099596 0.30408999324
          5 0.029062800109 0.15694400668 4.794479847 -0.0099189598113 0.26575800776
          5 0.087072201073 0.42495000362 5 -0.20979200304 0.28537601233
          -2.9412100315 -0.31262499094 -0.011466300115 -2.8483600616 -0.1823129952 -0.18523199856
          -2.9510200024 -0.5 -0.15621200204 -2.7003099918 -0.5 -0.15431599319
          -1.9522600174 -0.011583000422 -0.29229301214 -2.1227400303 -0.27935901284 -0.5
          -2.0815498829 -0.33450999856 -0.28891399503 -1.890920043 -0.16450600326 -0.5
          -4.5181999207 0.028785899282 0.28230598569 -4.6791801453 0.16429899633 0.5
          -4.8052501678 -0.030253799632 0.27854898572 -4.6812400818 0.14698000252 0.1767770052
          -2.6965899467 -0.25478899479 0.070601798594 -2.6441700459 0.0031107501127 0.0051095401868
          -2.8699100018 0.034952599555 0.013808799908 -2.8483600616 -0.1823129952 -0.18523199856
          -1.5214099884 -0.5 0.34752699733 -1.3560899496 -0.21440200508 0.5
          -1.2460000515 -0.40172600746 0.5 -1.637830019 -0.34564900398 0.5
          -3.1402900219 0.086144499481 -0.5 -3.3937699795 -0.1384550035 -0.5
          -3.387419939 -0.020452000201 -0.26496699452 -3.1430599689 -0.16607600451 -0.5
          -4.6812400818 0.14698000252 0.1767770052 -4.7836899757 -0.0049985698424 -0.0062314402312
          -5 0.15884299576 0.21330599487 -5 -0.004447159823 0.13623799384
          2.2502601147 0.5 -0.1980600059 2.2155299187 0.29384601116 -0.016047000885
          2.4688100815 0.27537798882 -0.28756999969 2.2796599865 0.15909999609 -0.20078100264
          4.1160001755 -0.25597798824 -0.023964699358 3.8334798813 -0.29951399565 -0.035472199321
          3.8543400764 -0.043197199702 -0.061682298779 3.9352300167 -0.034624699503 0.14412599802
          4.091340065 0.41007000208 -0.5 4.0096001625 0.5 -0.34201300144
          4.2950100899 0.5 -0.35224300623 4.1898999214 0.32223001122 -0.31539100409
          0.5860620141 0.083102703094 0.5 0.33892700076 0.20277099311 0.5
          0.47176000476 -0.12052799761 0.5 0.46630200744 0.046083901078 0.25881299376
          4.5015702248 0.045086801052 0.27461698651 4.390999794 0.12619799376 0.5
          4.625770092 0.13625299931 0.5 4.5424098969 -0.083453699946 0.5
          -4.3489499092 -0.10022199899 -0.5 -4.6226601601 -0.13244700432 -0.5
          -4.5893697739 -0.027997599915 -0.31035900116 -4.4539299011 -0.1930360049 -0.27674099803
          -4.7847399712 0.018612299114 -0.27819800377 -4.6226601601 -0.13244700432 -0.5
          -4.8039498329 -0.1570609957 -0.5 -4.5893697739 -0.027997599915 -0.31035900116
          2.9103798866 -0.24695399404 0.5 2.797960043 -0.29616799951 0.32714900374
          2.8023600578 -0.042083900422 0.5 2.6795399189 -0.26569700241 0.5
          -0.93913400173 -0.20071199536 -0.20192199945 -1.0007799864 -0.5 -0.1113319993
          -0.94314199686 -0.25431698561 0.040656600147 -0.78096401691 -0.28885498643 -0.091540999711
          -3.7068300247 -0.31349000335 0.29142400622 -3.8540000916 -0.5 0.28207299113
          -3.7200200558 -0.5 0.14442199469 -3.8883500099 -0.22696000338 0.22436200082
          2.8296399117 0.5 -0.49776399136 2.6973400116 0.5 -0.29229000211
          2.9282898903 0.5 -0.19310599566 2.8429698944 0.28180000186 -0.27394500375
          -2.3735599518 -0.0037444499321 -0.31686800718 -2.2611498833 -0.21604500711 -0.31563100219
          -2.4208400249 -0.17098300159 -0.17608100176 -2.1682898998 -0.037599701434 -0.23476999998
          -4.4012899399 0.03873860091 -0.27101901174 -4.5893697739 -0.027997599915 -0.31035900116
          -4.6261501312 0.17262099683 -0.1935839951 -4.5986399651 0.089573398232 -0.0050773997791
          -3.387419939 -0.020452000201 -0.26496699452 -3.2809400558 -0.26598799229 -0.5
          -3.1692500114 -0.17956000566 -0.18042400479 -3.1430599689 -0.16607600451 -0.5
          3.1241300106 0.5 -0.23149099946 2.9282898903 0.5 -0.19310599566
          3.0176899433 0.33451101184 -0.5 3.1881299019 0.5 -0.42051500082
          -0.63264602423 -0.32936599851 0.064718000591 -0.74051898718 -0.13983599842 0.1276730001
          -0.53925698996 -0.14979499578 0.041408799589 -0.47073799372 -0.22246700525 0.21898700297
          1.4679900408 -0.23194299638 -0.032342601568 1.1665500402 -0.30232200027 0.032807700336
          1.2388900518 -0.17473700643 -0.16655999422 1.298789978 -0.15092399716 0.16408100724
          4.5424098969 -0.083453699946 0.5 4.625770092 0.13625299931 0.5
          4.5015702248 0.045086801052 0.27461698651 4.794479847 -0.0099189598113 0.26575800776
          0.77794498205 -0.5 0.24261300266 0.89871001244 -0.21273000538 0.19672900438
          0.7291790247 -0.29900100827 0.29153800011 0.78195297718 -0.29943698645 0.031285099685
          -4.2314600945 0.092286400497 0.01309709996 -4.1479997635 0.1524810046 0.18773500621
          -3.9890100956 0.24387900531 0.0062287501059 -4.0997099876 -0.04042249918 -0.065122202039
          4.8203802109 0.5 -0.047230999917 5 0.32882899046 -0.12744599581
          4.9951200485 0.5 -0.11868099868 5 0.35498699546 -0.28927499056
          0.37961798906 -0.27483201027 0.3045360148 0.36774501204 -0.27583301067 0.050296399742
          0.58512401581 -0.18639500439 0.18318599463 0.3798109889 -0.11770299822 0.17650899291
          -4.1456699371 -0.049980100244 -0.5 -4.1763601303 0.12014900148 -0.5
          -4.4012899399 0.03873860091 -0.27101901174 -4.3489499092 -0.10022199899 -0.5
          -3.5974299908 0.015700999647 0.0042460002005 -3.3652899265 0.29221200943 0.018539199606
          -3.353219986 0.018101999536 -0.0069937198423 -3.6195299625 0.18837699294 0.1758890003
          0.96667098999 0.22423000634 0.21116599441 1.0667099953 0.30986699462 -0.00099666800816
          0.89332699776 0.23076300323 -0.16234900057 0.80673497915 0.05526150018 -0.040332399309
          4.5424098969 -0.083453699946 0.5 4.4160299301 -0.33252999187 0.5
          4.4824900627 -0.2778429985 0.28902798891 4.2901201248 -0.17937499285 0.5
          -3.1703898907 -0.28369298577 0.029881799594 -3.1692500114 -0.17956000566 -0.18042400479
          -3.1584899426 -0.5 -0.16631600261 -2.9412100315 -0.31262499094 -0.011466300115
          0.19322299957 -0.078569203615 -0.5 0.17147399485 -0.046462800354 -0.28626099229
          0.29461199045 -0.27944099903 -0.5 0.084536299109 -0.24571800232 -0.5
          -1.4115899801 -0.27296701074 -0.5 -1.3610700369 -0.5 -0.49804601073
          -1.5297700167 -0.41840699315 -0.5 -1.3521399498 -0.29692700505 -0.29181501269
          2.5377500057 -0.050653100014 -0.5 2.6635499001 -0.0075318100862 -0.31723999977
          2.7578799725 -0.10127799958 -0.5 2.5818200111 -0.276602 -0.5
          -2.9412100315 -0.31262499094 -0.011466300115 -3.0034298897 -0.12146800011 0.11256500334
          -3.1703898907 -0.28369298577 0.029881799594 -3.0067799091 -0.070524998009 -0.1112980023
          -3.353219986 0.018101999536 -0.0069937198423 -3.2168300152 0.015511999838 -0.16400499642
          -3.4054200649 -0.24873800576 -0.029902800918 -3.1692500114 -0.17956000566 -0.18042400479
          -2.6441700459 0.0031107501127 0.0051095401868 -2.4091000557 0.010666499846 0.010404500179
          -2.6087799072 -0.18399499357 -0.098889403045 -2.4500799179 -0.18146699667 0.1914049983
          -3.8897199631 -0.5 0.01333339978 -3.7200200558 -0.5 0.14442199469
          -3.8883500099 -0.22696000338 0.22436200082 -3.7506599426 -0.28654700518 -0.026961300522
          -2.8308899403 0.31933999062 -0.31058201194 -2.9498999119 0.5 -0.14169600606
          -3.0582199097 0.31288200617 -0.29153999686 -2.9230499268 0.5 -0.3529239893
          -0.72934299707 0.47740399837 -0.5 -0.80325001478 0.5 -0.29217898846
          -0.75955200195 0.2530399859 -0.5 -0.94353401661 0.5 -0.43025898933
          3.2362499237 -0.1912920028 -0.17273800075 3.4506099224 -0.25270500779 -0.04623780027
          3.18708992 -0.32281601429 -0.009787529707 3.1743900776 -0.18350000679 0.1536089927
          -2.6490800381 0.5 -0.17990100384 -2.9498999119 0.5 -0.14169600606
          -2.8308598995 0.31636199355 -0.103422001 -2.8308899403 0.31933999062 -0.31058201194
          -2.8274400234 0.051215600222 -0.3225030005 -3.0067799091 -0.070524998009 -0.1112980023
          -2.9755399227 0.12714900076 -0.1661580056 -2.8699100018 0.034952599555 0.013808799908
          -0.87598198652 -0.27951401472 0.27214699984 -1.1246000528 -0.21291700006 0.24169400334
          -0.99834597111 -0.5 0.33863401413 -1.1115700006 -0.5 0.061790000647
          -0.55149698257 0.19303299487 0.18695600331 -0.54225701094 0.182366997 0.5
          -0.70620900393 0.037291798741 0.28922000527 -0.71377199888 0.30195298791 0.28811401129
          4.5181698799 -0.25569599867 -0.00080205698032 4.3434801102 -0.13885499537 0.17381000519
          4.4824900627 -0.2778429985 0.28902798891 4.3140602112 -0.30338901281 0.040695600212
          1.2388900518 -0.17473700643 -0.16655999422 1.3415499926 0.046351000667 -0.2966940105
          1.2553399801 0.02869570069 -0.044535700232 1.139539957 -0.036767199636 -0.30390501022
          -0.86464500427 0.18405400217 0.1796399951 -0.55149698257 0.19303299487 0.18695600331
          -0.70620900393 0.037291798741 0.28922000527 -0.71377199888 0.30195298791 0.28811401129
          -2.6651101112 0.18645100296 0.5 -2.7145900726 -0.082542397082 0.279302001
          -2.5157299042 -0.098369702697 0.5 -2.6128799915 0.13250499964 0.27421799302
          -1.7749300003 -0.093701399863 0.5 -1.9649800062 -0.0049698902294 0.29592001438
          -1.9607599974 -0.22289100289 0.5 -1.9215400219 -0.19377499819 0.17684599757
          -2.8101699352 -0.5 0.047830801457 -2.6965899467 -0.25478899479 0.070601798594
          -2.7003099918 -0.5 -0.15431599319 -2.5808300972 -0.5 0.066097401083
          4.6631398201 0.058381199837 -0.5 4.4943199158 0.06769169867 -0.29010298848
          4.7696099281 -0.016697799787 -0.29300200939 4.5256800652 -0.098457798362 -0.5
          -2.461810112 -0.5 -0.23160800338 -2.6132099628 -0.29757499695 -0.26779401302
          -2.7003099918 -0.5 -0.15431599319 -2.704449892 -0.5 -0.44117501378
          -1.4028300047 -0.15640300512 -0.13328300416 -1.670410037 -0.23073199391 -0.21768200397
          -1.3964400291 -0.3062709868 0.030771600083 -1.5899200439 -0.5 -0.14776800573
          0.80673497915 0.05526150018 -0.040332399309 0.58827602863 -0.023083500564 0.03204099834
          0.70115399361 -0.13068500161 -0.12672199309 0.58461797237 0.18660899997 -0.17640599608
          -0.93892097473 -0.041356798261 0.5 -0.87598198652 -0.27951401472 0.27214699984
          -0.70902901888 -0.081924401224 0.5 -0.93832302094 -0.045258000493 0.24930199981
          -3.8034300804 0.010254199617 -0.24826699495 -3.7646200657 -0.015583699569 -0.5
          -4.0346798897 -0.02448659949 -0.29127898812 -3.8436501026 -0.17188200355 -0.5
          4.4979701042 0.25243699551 -0.5 4.501060009 0.27867999673 -0.21826599538
          4.5407099724 0.5 -0.4572699964 4.7205901146 0.28053200245 -0.5
          -2.6490800381 0.5 -0.17990100384 -2.8308598995 0.31636199355 -0.103422001
          -2.6850099564 0.20022499561 -0.22423900664 -2.8308899403 0.31933999062 -0.31058201194
          4.4985699654 0.29182401299 0.2750479877 4.8042798042 0.5 0.31367200613
          4.7387499809 0.5 0.12298899889 4.7025499344 0.19734199345 0.20103999972
          -0.21006199718 -0.066769301891 -0.5 -0.11357299984 -0.14485199749 -0.33142700791
          -0.028405899182 0.038570299745 -0.28863999248 -0.01470979955 -0.077135197818 -0.5
          -0.12616600096 0.363714993 -0.5 -0.26246398687 0.5 -0.27721399069
          -0.25742098689 0.29623898864 -0.3442530036 -0.41667899489 0.5 -0.48140498996
          2.3120000362 -0.058240499347 -0.5 2.2014501095 -0.17346900702 -0.18166600168
          2.2389800549 -0.33469301462 -0.31423199177 2.2094399929 -0.21062499285 -0.5
          2.5818200111 -0.276602 -0.5 2.6700599194 -0.18108099699 -0.17258299887
          2.7792201042 -0.32771399617 -0.28562399745 2.4597499371 -0.30076900125 -0.3059630096
          -2.6441700459 0.0031107501127 0.0051095401868 -2.6367399693 0.26534798741 0.078260503709
          -2.3996500969 0.17564900219 0.17784799635 -2.6128799915 0.13250499964 0.27421799302
          3.2362499237 -0.1912920028 -0.17273800075 3.4506099224 -0.25270500779 -0.04623780027
          3.3585400581 -0.5 -0.16122399271 3.18708992 -0.32281601429 -0.009787529707
          0.45764601231 0.28433001041 0.29305499792 0.69335997105 0.13933600485 0.14205299318
          0.46921399236 0.2665579915 0.056172598153 0.46630200744 0.046083901078 0.25881299376
          2.4395799637 -0.026134699583 0.038382198662 2.6777200699 -0.0055014099926 -0.0048864497803
          2.6354598999 -0.29880100489 0.010485099629 2.7103700638 -0.17533199489 0.17696000636
          -3.4697299004 0.28407201171 -0.298379004 -3.2381598949 0.5 -0.3880290091
          -3.3607699871 0.21685799956 -0.5 -3.2586500645 0.20448499918 -0.21992500126
          4.7124700546 0.20787400007 -0.21475000679 4.5822200775 0.29958099127 -0.0073895901442
          4.8058700562 0.17079499364 -0.0053127701394 4.5567698479 0.040265500546 -0.029345599934
          -2.6965899467 -0.25478899479 0.070601798594 -2.9412100315 -0.31262499094 -0.011466300115
          -2.9220399857 -0.26491099596 0.30408999324 -2.8101699352 -0.5 0.047830801457
          -4.0041999817 0.10439799726 -0.5 -3.7646200657 -0.015583699569 -0.5
          -3.8436501026 -0.17188200355 -0.5 -4.0346798897 -0.02448659949 -0.29127898812
          -1.0093300343 -0.26582100987 -0.5 -1.2095999718 -0.31749498844 -0.5
          -1.1352299452 -0.30921301246 -0.27610599995 -1.1371999979 -0.5 -0.43496501446
          1.9567300081 0.0023706499487 0.0081458101049 1.7617299557 0.19749200344 -0.18400299549
          1.7197300196 -0.0059337001294 -0.015229499899 1.8725500107 0.093445502222 -0.32259699702
          4.2311301231 -0.28602001071 0.30712598562 4.039850235 -0.20272299647 0.21478900313
          4.1665101051 -0.5 0.35283499956 4.0863099098 -0.5 0.17567700148
          -4.3976202011 -0.16255900264 0.25912800431 -4.5181999207 0.028785899282 0.28230598569
          -4.3030099869 0.0012274599867 0.5 -4.513229847 -0.036582600325 0.5
          1.0963699818 0.18162600696 -0.5 1.3415499926 0.046351000667 -0.2966940105
          1.3222500086 0.19783599675 -0.5 1.2096600533 0.029559800401 -0.5
          -1.9560199976 0.18910500407 0.17773799598 -1.9903299809 0.30669298768 -0.0096472296864
          -1.9655499458 0.017111200839 0.015656199306 -1.8121700287 0.32682698965 0.085832998157
          0.02034159936 -0.29206499457 -0.27554398775 -0.18628300726 -0.26750600338 -0.029726099223
          -0.014450499788 -0.12391400337 -0.11072800308 0.10427799821 -0.31776800752 -0.01549869962
          2.6561300755 0.37442401052 -0.5 2.6477799416 0.16645799577 -0.17383100092
          2.7815999985 0.20081700385 -0.5 2.4688100815 0.27537798882 -0.28756999969
          -0.74051898718 -0.13983599842 0.1276730001 -0.94314199686 -0.25431698561 0.040656600147
          -0.78096401691 -0.28885498643 -0.091540999711 -0.81901800632 -0.064964897931 -0.069114297628
          -2.1791601181 0.066247500479 0.26825898886 -2.2944800854 0.10816299915 0.5
          -2.1011199951 0.16092300415 0.5 -2.1403698921 -0.070216402411 0.5
          3.1743900776 -0.18350000679 0.1536089927 2.9201900959 0.0039753098972 -0.016150400043
          2.9692099094 -0.18215200305 0.27709600329 2.94404006 -0.24824899435 0.048307999969
          -1.6999100447 -0.016917800531 0.25771600008 -1.8168400526 0.14203999937 0.32622399926
          -1.9649800062 -0.0049698902294 0.29592001438 -1.9560199976 0.18910500407 0.17773799598
          -4.697619915 0.5 -0.22214700282 -4.6541099548 0.5 -0.42925700545
          -4.500120163 0.30916801095 -0.29975399375 -4.4078397751 0.5 -0.27026000619
          1.3350299597 0.5 0.26320800185 1.1859600544 0.5 0.33510899544
          1.142539978 0.300906986 0.29215401411 1.0695999861 0.5 0.21742899716
          4.4999699593 -0.30107301474 -0.267922014 4.8028302193 -0.29806599021 -0.33157899976
          4.6661100388 -0.5 -0.39997300506 4.7140798569 -0.5 -0.1463650018
          2.9622399807 -0.48268601298 0.5 3.0828099251 -0.5 0.29510200024
          3.1408400536 -0.26990801096 0.5 2.9103798866 -0.24695399404 0.5
          -3.7506599426 -0.28654700518 -0.026961300522 -3.8106400967 -0.5 -0.18066500127
          -3.5598199368 -0.5 0.038439199328 -3.5715000629 -0.33374500275 -0.11063300073
          -1.1455899477 -0.027385700494 -0.5 -1.2810100317 -0.16105599701 -0.5
          -1.1352299452 -0.30921301246 -0.27610599995 -1.0093300343 -0.26582100987 -0.5
          -2.182790041 0.25494199991 0.029647100717 -1.9655499458 0.017111200839 0.015656199306
          -2.1791601181 0.066247500479 0.26825898886 -1.9560199976 0.18910500407 0.17773799598
          -4.5130600929 -0.32579600811 0.18804700673 -4.7982001305 -0.27365100384 -0.020341299474
          -4.6742100716 -0.19076700509 0.15933300555 -4.5578799248 -0.5 0.075488097966
          -2.131000042 0.5 0.14166200161 -2.5066099167 0.5 0.23033800721
          -2.2191998959 0.31082698703 0.26025301218 -2.2987000942 0.5 -0.012699699961
          -1.6999100447 -0.016917800531 0.25771600008 -1.7749300003 -0.093701399863 0.5
          -1.7268799543 -0.26261898875 0.29539200664 -1.9649800062 -0.0049698902294 0.29592001438
          2.9589400291 -0.2156240046 -0.5 2.9223198891 0.00037304600119 -0.5
          2.8999099731 0.041673701257 -0.29681798816 2.7578799725 -0.10127799958 -0.5
          1.8255000114 -0.5 0.10807599872 1.6352499723 -0.5 0.19289499521
          1.664839983 -0.5 0.021711599082 1.7191100121 -0.2926889956 0.013918399811
          4.3278198242 -0.19421100616 -0.1541839987 4.5178999901 -0.10659900308 -0.17478400469
          4.4999699593 -0.30107301474 -0.267922014 4.5181698799 -0.25569599867 -0.00080205698032
          3.730809927 0.29602000117 0.3136009872 3.7404100895 0.5 0.40195301175
          3.9557700157 0.35738798976 0.5 3.8128800392 0.20643000305 0.5
          -0.66166800261 -0.5 0.21156099439 -0.65928399563 -0.29948800802 0.30083200336
          -0.47073799372 -0.22246700525 0.21898700297 -0.48325100541 -0.5 0.32274898887
          -3.5133900642 -0.13522699475 0.5 -3.2471899986 -0.22948899865 0.5
          -3.349050045 -0.092123396695 0.5 -3.4786798954 -0.29719600081 0.28423199058
          2.4688100815 0.27537798882 -0.28756999969 2.6973400116 0.5 -0.29229000211
          2.8429698944 0.28180000186 -0.27394500375 2.6477799416 0.16645799577 -0.17383100092
          -1.4028999805 0.13422000408 0.12791000307 -1.3727099895 0.30601900816 0.28291600943
          -1.29381001 0.12503300607 0.31571400166 -1.5232800245 0.099855400622 0.30515301228
          -2.0332100391 0.28143399954 0.34608799219 -1.8168400526 0.14203999937 0.32622399926
          -1.9165099859 0.082864999771 0.5 -1.8413699865 0.28546500206 0.5
          -0.29698100686 -0.33138298988 0.28727200627 -0.33964401484 -0.12936100364 0.5
          -0.17885400355 -0.17817400396 0.19088800251 -0.28134599328 -0.29646700621 0.5
          4.5181698799 -0.25569599867 -0.00080205698032 4.4824900627 -0.2778429985 0.28902798891
          4.4995098114 -0.5 0.058421999216 4.3140602112 -0.30338901281 0.040695600212
          -0.0014522599522 0.5 -0.37516400218 -0.020521700382 0.27518200874 -0.3097819984
          -0.12392300367 0.5 -0.12977199256 0.075165897608 0.5 -0.16578200459
          2.9862799644 0.5 0.48882699013 3.0071001053 0.30889099836 0.30772000551
          2.8473100662 0.22374899685 0.5 3.1938300133 0.27075499296 0.5
          -3.3607699871 0.21685799956 -0.5 -3.4697299004 0.28407201171 -0.298379004
          -3.2586500645 0.20448499918 -0.21992500126 -3.387419939 -0.020452000201 -0.26496699452
          4.814139843 -0.29069000483 0.014058699831 4.6710700989 -0.19623799622 0.19057400525
          5 -0.20979200304 0.28537601233 4.8106999397 -0.29430899024 0.31109198928
          -3.0080699921 0.29238799214 0.028416100889 -3.2586500645 0.20448499918 -0.21992500126
          -3.3652899265 0.29221200943 0.018539199606 -3.119879961 0.056279499084 0.0078261103481
          3.9085800648 0.5 -0.15719300508 4.0157899857 0.23598599434 -0.23627699912
          4.0785198212 0.2688550055 0.022481000051 4.1033101082 0.5 -0.16609400511
          -1.3521399498 -0.29692700505 -0.29181501269 -1.670410037 -0.23073199391 -0.21768200397
          -1.5899200439 -0.5 -0.14776800573 -1.4707000256 -0.5 -0.29291000962
          -0.18628300726 -0.26750600338 -0.029726099223 -0.40286201239 -0.0046954802237 -0.0054140798748
          -0.169242993 0.019168399274 -0.0072063799016 -0.17885400355 -0.17817400396 0.19088800251
          3.2248399258 -0.5 -0.3111949861 3.1227400303 -0.30917099118 -0.31313300133
          3.3585400581 -0.5 -0.16122399271 3.18708992 -0.32281601429 -0.009787529707
          -3.2138299942 0.5 0.12549799681 -3.3652899265 0.29221200943 0.018539199606
          -3.5453898907 0.5 0.00052557198796 -3.475399971 0.5 0.31425100565
          -2.1895999908 0.28031998873 -0.27681100368 -2.4123599529 0.30793198943 -0.0017855500337
          -2.2987000942 0.5 -0.012699699961 -2.182790041 0.25494199991 0.029647100717
          2.6206200123 0.32416799664 0.30228099227 2.6889400482 0.16072399914 0.18579299748
          2.5758199692 0.075252600014 0.5 2.8473100662 0.22374899685 0.5
          -1.3560899496 -0.21440200508 0.5 -1.334980011 -0.066682696342 0.27562999725
          -1.3444800377 -0.30236798525 0.28137201071 -1.1465300322 -0.23797599971 0.5
          -4.1479997635 0.1524810046 0.18773500621 -4.2407898903 -0.014909300022 0.29183000326
          -4.1556100845 0.12476799637 0.5 -4.0238199234 -0.033451199532 0.28527000546
          -0.77074998617 -0.30250000954 -0.3132340014 -0.59533298016 -0.13490399718 -0.5
          -0.7581089735 -0.15487499535 -0.5 -0.63522601128 -0.32412400842 -0.5
          -4.2580599785 -0.5 -0.032561998814 -4.2715802193 -0.32873600721 0.20494799316
          -4.0987300873 -0.5 0.24074499309 -4.3720297813 -0.5 0.12119200081
          3.8334798813 -0.29951399565 -0.035472199321 3.7557299137 -0.14269599319 0.12685400248
          3.6328399181 -0.30484598875 0.056098300964 3.6450901031 -0.17131699622 -0.19211299717
          1.2041200399 0.21308499575 -0.18568199873 1.4356100559 0.30725300312 0.014958400279
          1.3762099743 0.5 -0.1532869935 1.4860899448 0.23913800716 -0.2658199966
          0.16596199572 0.5 0.45811799169 0.057354498655 0.2768329978 0.30196899176
          0.25995999575 0.5 0.30666300654 0.086996898055 0.5 0.2632420063
          1.0831899643 -0.026730500162 0.28337299824 1.1710499525 0.11986300349 0.5
          1.142539978 0.300906986 0.29215401411 1.2891700268 0.025188799948 0.31899100542
          -2.0815498829 -0.33450999856 -0.28891399503 -2.2273199558 -0.5 -0.24430799484
          -2.0754799843 -0.5 -0.065173096955 -1.9762599468 -0.5 -0.39294800162
          -3.0716400146 0.45964699984 -0.5 -2.8458900452 0.23675900698 -0.5
          -3.0582199097 0.31288200617 -0.29153999686 -2.9230499268 0.5 -0.3529239893
          -0.012120299973 -0.32062399387 0.28174200654 0.028599999845 -0.025005400181 0.30730199814
          0.15296399593 -0.18104599416 0.18370200694 0.03605210036 -0.1630679965 0.5
          -4.0642700195 0.5 0.20991900563 -4.1248002052 0.32227998972 0.33130601048
          -3.8539500237 0.5 0.19824199378 -3.8861699104 0.22745600343 0.24729199708
          1.8518699408 -0.5 0.28856000304 1.8255000114 -0.5 0.10807599872
          2.0752000809 -0.5 0.1838440001 1.9245300293 -0.27816799283 0.073713801801
          2.0716900826 -0.38688901067 0.5 1.8388400078 -0.37851500511 0.5
          1.8518699408 -0.5 0.28856000304 2.0565500259 -0.31903299689 0.2972239852
          -2.0084600449 0.5 0.30924999714 -2.131000042 0.5 0.14166200161
          -1.9903299809 0.30669298768 -0.0096472296864 -1.8121700287 0.32682698965 0.085832998157
          4.2942700386 0.099316298962 -0.5 4.5256800652 -0.098457798362 -0.5
          4.3206100464 -0.13641299307 -0.5 4.3479599953 -0.069560296834 -0.31158301234
          1.2676099539 0.18327300251 0.17430500686 1.3807200193 0.21050100029 0.5
          1.4897999763 0.29271999002 0.26752799749 1.2891700268 0.025188799948 0.31899100542
          0.084536299109 -0.24571800232 -0.5 -0.1279810071 -0.26361098886 -0.5
          0.02034159936 -0.29206499457 -0.27554398775 0.1349440068 -0.5 -0.49112400413
          -3.4697299004 0.28407201171 -0.298379004 -3.2381598949 0.5 -0.3880290091
          -3.2586500645 0.20448499918 -0.21992500126 -3.2857298851 0.5 -0.18894700706
          2.6809399128 0.37128800154 0.5 2.7771201134 0.5 0.34628498554
          2.8473100662 0.22374899685 0.5 2.9862799644 0.5 0.48882699013
          -0.10501199961 -0.31161299348 0.5 -0.10500200093 -0.014513599686 0.5
          -0.17885400355 -0.17817400396 0.19088800251 0.03605210036 -0.1630679965 0.5
          -3.6039199829 -0.1486119926 -0.1880979985 -3.5715000629 -0.33374500275 -0.11063300073
          -3.4054200649 -0.24873800576 -0.029902800918 -3.406719923 -0.26567399502 -0.27803298831
          1.71875 0.012455300428 0.32105600834 1.818590045 0.3155849874 0.32314199209
          1.9254900217 0.21205799282 0.5 1.6280800104 0.11417599767 0.5
          -4.5338001251 0.5 0.29403999448 -4.4165802002 0.22745400667 0.23878499866
          -4.5957798958 0.24809199572 0.32881501317 -4.5665698051 0.35982298851 0.5
          3.4532198906 -0.27570098639 -0.28086999059 3.7846400738 -0.3112359941 -0.2879639864
          3.6315801144 -0.5 -0.39594000578 3.5628299713 -0.5 -0.19047999382
          0.85752302408 0.5 0.012258999981 0.71180897951 0.31379199028 -0.019653400406
          0.89332699776 0.23076300323 -0.16234900057 0.70714598894 0.5 -0.22382299602
          2.2007598877 0.32477998734 -0.29550099373 2.2796599865 0.15909999609 -0.20078100264
          2.4688100815 0.27537798882 -0.28756999969 2.2902700901 0.13368199766 -0.5
          1.2936199903 0.35917899013 0.5 1.3807200193 0.21050100029 0.5
          1.4934600592 0.40915301442 0.5 1.4897999763 0.29271999002 0.26752799749
          -4.022600174 -0.31765198708 -0.031538199633 -3.9185600281 -0.21505500376 -0.20922599733
          -4.2221798897 -0.17677399516 -0.20671699941 -4.0849199295 -0.30423098803 -0.31639400125
          -2.141769886 0.5 -0.17799699306 -2.1895999908 0.28031998873 -0.27681100368
          -2.2987000942 0.5 -0.012699699961 -2.182790041 0.25494199991 0.029647100717
          4.3434801102 -0.13885499537 0.17381000519 4.317220211 0.013630899601 -0.032561101019
          4.3278198242 -0.19421100616 -0.1541839987 4.5181698799 -0.25569599867 -0.00080205698032
          0.3679780066 0.042948998511 -0.26218301058 0.17147399485 -0.046462800354 -0.28626099229
          0.3682860136 0.00067014299566 0.0082637900487 0.2199189961 -0.15206000209 -0.010414100252
          -0.38609901071 0.25310799479 0.3300819993 -0.35255399346 0.016716400161 0.25871700048
          -0.29486501217 0.23727999628 0.084538802505 -0.55149698257 0.19303299487 0.18695600331
          -0.93892097473 -0.041356798261 0.5 -0.95835602283 -0.27399000525 0.5
          -0.87598198652 -0.27951401472 0.27214699984 -0.93832302094 -0.045258000493 0.24930199981
          4.501060009 0.27867999673 -0.21826599538 4.373770237 0.29578301311 -0.0035506200511
          4.2944598198 0.20695400238 -0.17472800612 4.2976098061 0.5 -0.16453999281
          1.4357299805 -0.35067200661 0.5 1.2525800467 -0.23895399272 0.5
          1.4891799688 -0.27188199759 0.26980000734 1.3978899717 -0.017269099131 0.5
          3.4532198906 -0.27570098639 -0.28086999059 3.5628299713 -0.5 -0.19047999382
          3.4290299416 -0.5 -0.34937500954 3.3585400581 -0.5 -0.16122399271
          -0.57590299845 0.34252899885 -0.5 -0.47644600272 0.21734400094 -0.22011299431
          -0.68140697479 0.28639298677 -0.28938999772 -0.60728102922 0.5 -0.3106789887
          -0.92035800219 0.31782001257 0.33497199416 -0.86464500427 0.18405400217 0.1796399951
          -1.1475800276 0.23044300079 0.22876000404 -0.96254199743 0.19088900089 0.5
          0.57815998793 -0.31825500727 -0.050177000463 0.48660299182 -0.097960598767 -0.14581799507
          0.70115399361 -0.13068500161 -0.12672199309 0.58827602863 -0.023083500564 0.03204099834
          0.39225000143 -0.090401999652 -0.5 0.19322299957 -0.078569203615 -0.5
          0.3679780066 0.042948998511 -0.26218301058 0.17147399485 -0.046462800354 -0.28626099229
          -4.2715802193 -0.32873600721 0.20494799316 -4.3976202011 -0.16255900264 0.25912800431
          -4.439789772 -0.27735000849 -0.054897699505 -4.2342700958 -0.2943969965 -0.036790598184
          0.41966900229 0.5 0.38582900167 0.25995999575 0.5 0.30666300654
          0.45764601231 0.28433001041 0.29305499792 0.27400401235 0.5 0.12896299362
          0.67495399714 0.10961399972 -0.5 0.58461797237 0.18660899997 -0.17640599608
          0.73280501366 0.2939440012 -0.30173701048 0.71499300003 0.033225100487 -0.28708100319
          -2.7003099918 -0.5 -0.15431599319 -2.8483600616 -0.1823129952 -0.18523199856
          -2.9510200024 -0.5 -0.15621200204 -2.8245999813 -0.5 -0.29598200321
          -4.3489499092 -0.10022199899 -0.5 -4.4353399277 -0.2726149857 -0.5
          -4.6226601601 -0.13244700432 -0.5 -4.4539299011 -0.1930360049 -0.27674099803
          1.7132099867 0.18727500737 0.17964400351 1.818590045 0.3155849874 0.32314199209
          1.71875 0.012455300428 0.32105600834 1.6280800104 0.11417599767 0.5
          -4.6261501312 0.17262099683 -0.1935839951 -4.697619915 0.5 -0.22214700282
          -4.500120163 0.30916801095 -0.29975399375 -4.514550209 0.5 -0.045017201453
          1.0327399969 -0.5 -0.23253199458 0.77619498968 -0.5 -0.05961849913
          0.82210099697 -0.27426099777 -0.29057401419 0.96319800615 -0.25574100018 -0.086030602455
          1.4243400097 -0.5 0.34605500102 1.1263699532 -0.31314399838 0.27022001147
          1.3733700514 -0.33255699277 0.11544699967 1.4891799688 -0.27188199759 0.26980000734
          -0.6270070076 -0.18018999696 -0.18880400062 -0.81901800632 -0.064964897931 -0.069114297628
          -0.7856760025 -0.061230801046 -0.29652500153 -0.74285399914 0.13776800036 -0.12904399633
          4.0863099098 -0.5 0.17567700148 4.039850235 -0.20272299647 0.21478900313
          4.1665101051 -0.5 0.35283499956 3.9721999168 -0.5 0.36053299904
          -3.606400013 -0.5 0.29930099845 -3.8540000916 -0.5 0.28207299113
          -3.7200200558 -0.5 0.14442199469 -3.7068300247 -0.31349000335 0.29142400622
          -0.29398798943 -0.19200000167 -0.2282319963 -0.29023098946 -0.5 -0.36567699909
          -0.30116099119 -0.5 -0.18737800419 -0.094856999815 -0.5 -0.28745400906
          4.7025499344 0.19734199345 0.20103999972 4.8042798042 0.5 0.31367200613
          4.8432202339 0.33124399185 0.15127900243 4.8295898438 0.25321400166 0.5
          2.6250600815 -0.5 0.26846000552 2.4503700733 -0.5 0.32925000787
          2.498290062 -0.5 0.11315499991 2.4458899498 -0.25059598684 0.23923400044
          1.9567300081 0.0023706499487 0.0081458101049 1.7197300196 -0.0059337001294 -0.015229499899
          1.7132099867 0.18727500737 0.17964400351 1.8789199591 -0.10240700096 0.16247299314
          3.2087500095 0.49311301112 0.5 3.353579998 0.25871399045 0.31244799495
          3.1938300133 0.27075499296 0.5 3.5066199303 0.45685198903 0.5
          1.3807200193 0.21050100029 0.5 1.6280800104 0.11417599767 0.5
          1.4934600592 0.40915301442 0.5 1.4897999763 0.29271999002 0.26752799749
          1.7191100121 -0.2926889956 0.013918399811 1.5954600573 -0.5 -0.26120200753
          1.8100399971 -0.5 -0.073667302728 1.673140049 -0.32074698806 -0.32187500596
          2.6561300755 0.37442401052 -0.5 2.6973400116 0.5 -0.29229000211
          2.8429698944 0.28180000186 -0.27394500375 2.4688100815 0.27537798882 -0.28756999969
          2.6354598999 -0.29880100489 0.010485099629 2.5833399296 -0.5 -0.06280399859
          2.750590086 -0.5 -0.077522300184 2.6533699036 -0.5 -0.22465799749
          -3.7506599426 -0.28654700518 -0.026961300522 -3.8883500099 -0.22696000338 0.22436200082
          -3.8897199631 -0.5 0.01333339978 -4.022600174 -0.31765198708 -0.031538199633
          3.0071001053 0.30889099836 0.30772000551 2.9353599548 0.054025001824 0.25657498837
          2.966039896 0.21264900267 0.13400100172 2.8141000271 0.33296000957 0.21601100266
          -2.9220399857 -0.26491099596 0.30408999324 -2.9936599731 -0.45610100031 0.5
          -2.7791500092 -0.49004599452 0.5 -2.962280035 -0.5 0.2204490006
          -4.2659602165 0.28228399158 0.5 -4.0860900879 0.5 0.47527000308
          -4.1248002052 0.32227998972 0.33130601048 -3.9800200462 0.29855400324 0.5
          -1.8138200045 -0.5 0.13895599544 -1.728489995 -0.2819840014 0.029070099816
          -1.9215400219 -0.19377499819 0.17684599757 -2.0675001144 -0.32273799181 0.069159403443
          -2.1682898998 -0.037599701434 -0.23476999998 -2.0815498829 -0.33450999856 -0.28891399503
          -1.9544999599 -0.19884000719 -0.16746899486 -1.9522600174 -0.011583000422 -0.29229301214
          -0.42740899324 -0.30482000113 -0.02907329984 -0.63264602423 -0.32936599851 0.064718000591
          -0.47073799372 -0.22246700525 0.21898700297 -0.3753170073 -0.5 0.14234599471
          -1.1722400188 -0.078797601163 -0.24050499499 -1.0750999451 -0.011404699646 0.007108009886
          -0.96304500103 0.042934101075 -0.20367699862 -0.93913400173 -0.20071199536 -0.20192199945
          2.2014501095 -0.17346900702 -0.18166600168 2.2389800549 -0.33469301462 -0.31423199177
          2.4389500618 -0.2577829957 -0.080456696451 2.4597499371 -0.30076900125 -0.3059630096
          -0.48361599445 -0.5 -0.22838500142 -0.56736600399 -0.5 -0.39558899403
          -0.47420999408 -0.29338499904 -0.29220598936 -0.77074998617 -0.30250000954 -0.3132340014
          -4.6633000374 0.5 0.39759600163 -4.7674899101 0.33730000257 0.27226099372
          -4.7492098808 0.3132250011 0.5 -4.5957798958 0.24809199572 0.32881501317
          -2.9755399227 0.12714900076 -0.1661580056 -3.0582199097 0.31288200617 -0.29153999686
          -2.8274400234 0.051215600222 -0.3225030005 -2.8308899403 0.31933999062 -0.31058201194
          -0.1279810071 -0.26361098886 -0.5 -0.17599500716 -0.47140499949 -0.5
          -0.29023098946 -0.5 -0.36567699909 -0.094856999815 -0.5 -0.28745400906
          -2.9752700329 0.12661999464 -0.5 -2.8274400234 0.051215600222 -0.3225030005
          -3.0681700706 -0.022411899641 -0.31216698885 -2.9755399227 0.12714900076 -0.1661580056
          0.17147399485 -0.046462800354 -0.28626099229 0.14069800079 0.16885900497 -0.17604699731
          0.22253899276 0.29792100191 -0.30861100554 0.3679780066 0.042948998511 -0.26218301058
          -4.8052501678 -0.030253799632 0.27854898572 -5 -0.12896800041 0.37591099739
          -5 0.07584580034 0.38386198878 -4.7226400375 0.0055706598796 0.5
          4.3127498627 0.19265699387 0.16710400581 4.0886101723 0.063145399094 0.2613709867
          4.0785198212 0.2688550055 0.022481000051 4.1333699226 0.29578199983 0.28484800458
          -3.9185600281 -0.21505500376 -0.20922599733 -3.7506599426 -0.28654700518 -0.026961300522
          -3.7279200554 -0.31415998936 -0.27874299884 -3.8106400967 -0.5 -0.18066500127
          -2.2036099434 0.092982001603 -0.086743198335 -2.187210083 -0.061865199357 0.039609499276
          -2.182790041 0.25494199991 0.029647100717 -1.9655499458 0.017111200839 0.015656199306
          4.1275501251 -0.15113399923 0.5 4.0886101723 0.063145399094 0.2613709867
          4.2926101685 0.022265100852 0.30176800489 4.2180900574 0.013842199929 0.5
          2.9862799644 0.5 0.48882699013 3.1571199894 0.5 0.16706800461
          3.0071001053 0.30889099836 0.30772000551 3.2087500095 0.49311301112 0.5
          4.501060009 0.27867999673 -0.21826599538 4.2950100899 0.5 -0.35224300623
          4.5407099724 0.5 -0.4572699964 4.4749798775 0.5 -0.22600099444
          2.6700599194 -0.18108099699 -0.17258299887 2.9201900959 0.0039753098972 -0.016150400043
          2.809910059 -0.30858701468 -0.088228099048 2.6777200699 -0.0055014099926 -0.0048864497803
          3.4532198906 -0.27570098639 -0.28086999059 3.1227400303 -0.30917099118 -0.31313300133
          3.2248399258 -0.5 -0.3111949861 3.190030098 -0.22524799407 -0.5
          2.3120000362 -0.058240499347 -0.5 2.2902700901 0.13368199766 -0.5
          2.4390499592 -0.057027101517 -0.2462310046 2.1815600395 -0.001020470052 -0.32536798716
          1.7617299557 0.19749200344 -0.18400299549 1.6601899862 0.29914501309 -0.0094896201044
          1.9609899521 0.27691298723 0.076514601707 1.7197300196 -0.0059337001294 -0.015229499899
          -0.77074998617 -0.30250000954 -0.3132340014 -1.0093300343 -0.26582100987 -0.5
          -0.86342602968 -0.5 -0.2539960146 -0.7991899848 -0.42665201426 -0.5
          1.9453500509 -0.087545797229 -0.2573390007 1.7917699814 -0.17960299551 -0.5
          2.042320013 -0.28687000275 -0.5 2.040199995 0.016450500116 -0.5
          -3.6195299625 0.18837699294 0.1758890003 -3.5640099049 0.29994499683 -0.013255200349
          -3.7612600327 0.27116200328 0.015408799984 -3.5974299908 0.015700999647 0.0042460002005
          -2.1895999908 0.28031998873 -0.27681100368 -2.4157299995 0.5 -0.27320700884
          -2.2987000942 0.5 -0.012699699961 -2.4123599529 0.30793198943 -0.0017855500337
          4.814139843 -0.29069000483 0.014058699831 4.7109298706 -0.5 0.037262801081
          4.6710700989 -0.19623799622 0.19057400525 4.8106999397 -0.29430899024 0.31109198928
          4.0096001625 0.5 -0.34201300144 4.1033101082 0.5 -0.16609400511
          4.2950100899 0.5 -0.35224300623 4.1898999214 0.32223001122 -0.31539100409
          4.3434801102 -0.13885499537 0.17381000519 4.5181698799 -0.25569599867 -0.00080205698032
          4.3278198242 -0.19421100616 -0.1541839987 4.3140602112 -0.30338901281 0.040695600212
          -2.8699100018 0.034952599555 0.013808799908 -3.0034298897 -0.12146800011 0.11256500334
          -2.9183399677 -0.016215600073 0.29276099801 -2.7145900726 -0.082542397082 0.279302001
          -3.0681700706 -0.022411899641 -0.31216698885 -2.8483600616 -0.1823129952 -0.18523199856
          -3.0114998817 -0.30267500877 -0.29305499792 -3.0067799091 -0.070524998009 -0.1112980023
          3.0071001053 0.30889099836 0.30772000551 2.8141000271 0.33296000957 0.21601100266
          2.8473100662 0.22374899685 0.5 2.9353599548 0.054025001824 0.25657498837
          2.94404006 -0.24824899435 0.048307999969 3.1172299385 -0.5 0.090180002153
          3.0828099251 -0.5 0.29510200024 3.1743900776 -0.18350000679 0.1536089927
          -1.0172100067 0.25485399365 -0.020222399384 -1.3262499571 0.2814899981 -0.050565201789
          -1.1475800276 0.23044300079 0.22876000404 -1.2951300144 0.045372098684 -0.065485596657
          0.68295001984 -0.13473699987 0.5 0.47176000476 -0.12052799761 0.5
          0.75085902214 -0.045475300401 0.28253901005 0.46630200744 0.046083901078 0.25881299376
          0.75085902214 -0.045475300401 0.28253901005 0.47176000476 -0.12052799761 0.5
          0.58512401581 -0.18639500439 0.18318599463 0.46630200744 0.046083901078 0.25881299376
          4.0785198212 0.2688550055 0.022481000051 3.9085800648 0.5 -0.15719300508
          3.867939949 0.29484701157 -0.023631099612 4.0157899857 0.23598599434 -0.23627699912
          0.16357299685 0.41697001457 -0.5 0.22253899276 0.29792100191 -0.30861100554
          0.42863300443 0.48355901241 -0.5 0.38934001327 0.21350599825 -0.5
          3.2171900272 0.5 -0.054951798171 3.095690012 0.30450299382 0.0079884901643
          3.1808700562 0.17408800125 -0.17278499901 3.1241300106 0.5 -0.23149099946
          -0.12994900346 0.14103500545 -0.5 -0.36137199402 0.054711200297 -0.5
          -0.24800799787 0.0088232699782 -0.29918900132 -0.21006199718 -0.066769301891 -0.5
          -0.55149698257 0.19303299487 0.18695600331 -0.29486501217 0.23727999628 0.084538802505
          -0.38609901071 0.25310799479 0.3300819993 -0.50226300955 0.5 0.14767700434
          1.2041200399 0.21308499575 -0.18568199873 1.4860899448 0.23913800716 -0.2658199966
          1.3222500086 0.19783599675 -0.5 1.3415499926 0.046351000667 -0.2966940105
          3.4302000999 -0.042014900595 -0.25968700647 3.4346001148 0.010584499687 0.0013051299611
          3.6228199005 0.064896397293 -0.30187800527 3.6450901031 -0.17131699622 -0.19211299717
          -4.2221798897 -0.17677399516 -0.20671699941 -4.2342700958 -0.2943969965 -0.036790598184
          -4.0849199295 -0.30423098803 -0.31639400125 -4.2746400833 -0.5 -0.25492700934
          3.657200098 0.044741101563 0.5 3.6032299995 -0.0550327003 0.29886201024
          3.3009901047 0.050491899252 0.5 3.4012000561 -0.17302200198 0.5
          0.15296399593 -0.18104599416 0.18370200694 0.12687399983 0.024941600859 0.019101899117
          0.2199189961 -0.15206000209 -0.010414100252 0.3798109889 -0.11770299822 0.17650899291
          -4.5578799248 -0.5 0.075488097966 -4.5986700058 -0.5 0.27377399802
          -4.5130600929 -0.32579600811 0.18804700673 -4.3720297813 -0.5 0.12119200081
          3.190030098 -0.22524799407 -0.5 3.099050045 -0.07797460258 -0.5
          3.2644200325 -0.026787700132 -0.5 3.120470047 -0.021967599168 -0.27757799625
          3.2970399857 0.30501198769 -0.2939350009 3.1881299019 0.5 -0.42051500082
          3.2461500168 0.28882101178 -0.5 3.3973500729 0.5 -0.34653198719
          -2.1895999908 0.28031998873 -0.27681100368 -2.1682898998 -0.037599701434 -0.23476999998
          -2.0428700447 0.13684900105 -0.5 -2.1926898956 0.17790399492 -0.5
          -3.8034300804 0.010254199617 -0.24826699495 -3.7279200554 -0.31415998936 -0.27874299884
          -3.9185600281 -0.21505500376 -0.20922599733 -3.6039199829 -0.1486119926 -0.1880979985
          1.0786999464 -0.15874500573 -0.5 1.2096600533 0.029559800401 -0.5
          1.139539957 -0.036767199636 -0.30390501022 1.0077899694 0.013961300254 -0.5
          4.2311301231 -0.28602001071 0.30712598562 4.1275501251 -0.15113399923 0.5
          4.2901201248 -0.17937499285 0.5 4.0639600754 -0.30339500308 0.5
          3.6450901031 -0.17131699622 -0.19211299717 3.6228199005 0.064896397293 -0.30187800527
          3.8543400764 -0.043197199702 -0.061682298779 3.7566299438 0.15342700481 -0.14512400329
          1.6074999571 0.030789300799 -0.26509699225 1.5757000446 -0.01348510012 -0.5
          1.3415499926 0.046351000667 -0.2966940105 1.4673299789 -0.16130299866 -0.30513200164
          -1.6403199434 -0.1704210043 -0.5 -1.670410037 -0.23073199391 -0.21768200397
          -1.5251499414 -0.076651901007 -0.31482899189 -1.4115899801 -0.27296701074 -0.5
          4.7124700546 0.20787400007 -0.21475000679 5 0.35498699546 -0.28927499056
          4.6908898354 0.5 -0.18460099399 4.7633600235 0.5 -0.40220698714
          -3.1402900219 0.086144499481 -0.5 -3.3607699871 0.21685799956 -0.5
          -3.387419939 -0.020452000201 -0.26496699452 -3.3937699795 -0.1384550035 -0.5
          4.3579602242 -0.5 -0.20988300443 4.3140602112 -0.30338901281 0.040695600212
          4.4995098114 -0.5 0.058421999216 4.296959877 -0.5 0.12259899825
          4.1033101082 0.5 -0.16609400511 4.2976098061 0.5 -0.16453999281
          4.1898999214 0.32223001122 -0.31539100409 4.2944598198 0.20695400238 -0.17472800612
          -1.9560199976 0.18910500407 0.17773799598 -1.8209400177 0.5 0.2201499939
          -1.8168400526 0.14203999937 0.32622399926 -2.0332100391 0.28143399954 0.34608799219
          0.086851902306 0.090062998235 -0.5 0.14069800079 0.16885900497 -0.17604699731
          0.22253899276 0.29792100191 -0.30861100554 0.17147399485 -0.046462800354 -0.28626099229
          3.7685399055 -0.11422099918 -0.34736299515 3.9046399593 0.029231099412 -0.28819599748
          3.9538800716 -0.19349299371 -0.21224999428 3.8543400764 -0.043197199702 -0.061682298779
          -3.7526800632 0.5 -0.34413599968 -3.6554999352 0.5 -0.12951600552
          -3.7156999111 0.29170098901 -0.33228498697 -3.822799921 0.5 -0.16184200346
          -0.1279810071 -0.26361098886 -0.5 -0.01470979955 -0.077135197818 -0.5
          0.084536299109 -0.24571800232 -0.5 -0.11357299984 -0.14485199749 -0.33142700791
          3.120470047 -0.021967599168 -0.27757799625 3.2905800343 0.095524303615 -0.3324739933
          3.2644200325 -0.026787700132 -0.5 3.4302000999 -0.042014900595 -0.25968700647
          2.9282898903 0.5 -0.19310599566 2.9283499718 0.5 0.14330999553
          2.8604700565 0.28147599101 -0.024887500331 2.6394400597 0.5 -0.0548616983
          2.8604700565 0.28147599101 -0.024887500331 2.8141000271 0.33296000957 0.21601100266
          2.6889400482 0.16072399914 0.18579299748 2.6540100574 0.30316799879 0.029222900048
          1.664839983 -0.5 0.021711599082 1.6352499723 -0.5 0.19289499521
          1.4919899702 -0.5 0.0043379599229 1.7191100121 -0.2926889956 0.013918399811
          1.8100399971 -0.5 -0.073667302728 1.6971999407 -0.18535399437 -0.17042499781
          1.8699899912 -0.30787700415 -0.26772201061 1.7191100121 -0.2926889956 0.013918399811
          -3.5521500111 0.0046129701659 -0.5 -3.5893199444 0.032997198403 -0.29434099793
          -3.387419939 -0.020452000201 -0.26496699452 -3.3937699795 -0.1384550035 -0.5
          -0.18628300726 -0.26750600338 -0.029726099223 -0.30116099119 -0.5 -0.18737800419
          -0.29398798943 -0.19200000167 -0.2282319963 -0.42740899324 -0.30482000113 -0.02907329984
          -1.9338200092 0.5 -0.29581001401 -2.1895999908 0.28031998873 -0.27681100368
          -1.8656400442 0.28522598743 -0.2969610095 -1.9816099405 0.27960699797 -0.5
          1.8388400078 -0.37851500511 0.5 1.6337100267 -0.2680259943 0.5
          1.8512899876 -0.25720700622 0.29749301076 1.8240200281 -0.074077397585 0.5
          -1.5302300453 -0.20296399295 0.1751369983 -1.7268799543 -0.26261898875 0.29539200664
          -1.6324599981 -0.5 0.14717400074 -1.728489995 -0.2819840014 0.029070099816
          -0.47644600272 0.21734400094 -0.22011299431 -0.68823200464 0.30021798611 0.030239600688
          -0.47131600976 0.32570299506 -0.023170199245 -0.74285399914 0.13776800036 -0.12904399633
          0.50762802362 0.094153903425 -0.5 0.58461797237 0.18660899997 -0.17640599608
          0.71499300003 0.033225100487 -0.28708100319 0.3679780066 0.042948998511 -0.26218301058
          -1.9560199976 0.18910500407 0.17773799598 -2.0332100391 0.28143399954 0.34608799219
          -1.8168400526 0.14203999937 0.32622399926 -1.9649800062 -0.0049698902294 0.29592001438
          0.25332000852 -0.5 0.31911799312 0.21745100617 -0.25824698806 0.5
          0.37961798906 -0.27483201027 0.3045360148 0.26355600357 -0.45382601023 0.5
          2.5818200111 -0.276602 -0.5 2.7792201042 -0.32771399617 -0.28562399745
          2.7811000347 -0.31243601441 -0.5 2.6179599762 -0.5 -0.39742100239
          -4.1164798737 0.5 -0.23297099769 -4.2024998665 0.29241999984 0.027058599517
          -4.0201997757 0.5 0.0039351000451 -3.9890100956 0.24387900531 0.0062287501059
          -2.0332100391 0.28143399954 0.34608799219 -2.1011199951 0.16092300415 0.5
          -1.9165099859 0.082864999771 0.5 -1.9649800062 -0.0049698902294 0.29592001438
          3.3688399792 0.28460401297 0.022468499839 3.4734098911 0.21108800173 -0.2205349952
          3.2970399857 0.30501198769 -0.2939350009 3.1808700562 0.17408800125 -0.17278499901
          3.0071001053 0.30889099836 0.30772000551 3.1800200939 0.15828900039 0.1766680032
          3.095690012 0.30450299382 0.0079884901643 2.966039896 0.21264900267 0.13400100172
          1.8845000267 0.5 -0.10376700014 1.7617299557 0.19749200344 -0.18400299549
          1.9183299541 0.30307900906 -0.11740200222 1.6638499498 0.32388100028 -0.30573499203
          3.8477098942 -0.5 -0.38085699081 3.7846400738 -0.3112359941 -0.2879639864
          4.0018801689 -0.5 -0.21358500421 3.790719986 -0.5 -0.15779900551
          -4.2580599785 -0.5 -0.032561998814 -4.4352798462 -0.5 -0.094545200467
          -4.439789772 -0.27735000849 -0.054897699505 -4.3720297813 -0.5 0.12119200081
          -1.6403199434 -0.1704210043 -0.5 -1.868549943 -0.36587700248 -0.5
          -1.8430000544 -0.33087998629 -0.29164901376 -1.7048399448 -0.4852539897 -0.5
          2.3215301037 -0.5 0.19653899968 2.4458899498 -0.25059598684 0.23923400044
          2.2314100266 -0.30056801438 0.0065283500589 2.498290062 -0.5 0.11315499991
          2.2314100266 -0.30056801438 0.0065283500589 2.498290062 -0.5 0.11315499991
          2.4389500618 -0.2577829957 -0.080456696451 2.3607499599 -0.5 -0.025692699477
          2.2314100266 -0.30056801438 0.0065283500589 2.4458899498 -0.25059598684 0.23923400044
          2.4389500618 -0.2577829957 -0.080456696451 2.498290062 -0.5 0.11315499991
          -3.6195299625 0.18837699294 0.1758890003 -3.776599884 -0.0024208100513 0.27819898725
          -3.595760107 0.14106500149 0.5 -3.5796399117 -0.036828301847 0.30965799093
          1.6074999571 0.030789300799 -0.26509699225 1.5757000446 -0.01348510012 -0.5
          1.7917699814 -0.17960299551 -0.5 1.785670042 0.036040998995 -0.5
          -3.7156999111 0.29170098901 -0.33228498697 -3.4697299004 0.28407201171 -0.298379004
          -3.5893199444 0.032997198403 -0.29434099793 -3.6415400505 0.18903900683 -0.16241000593
          2.3215301037 -0.5 0.19653899968 2.498290062 -0.5 0.11315499991
          2.2314100266 -0.30056801438 0.0065283500589 2.3607499599 -0.5 -0.025692699477
          -3.6039199829 -0.1486119926 -0.1880979985 -3.6202099323 -0.16945900023 0.16224400699
          -3.5974299908 0.015700999647 0.0042460002005 -3.4054200649 -0.24873800576 -0.029902800918
          0.89332699776 0.23076300323 -0.16234900057 1.0351999998 0.5 -0.23184999824
          1.035220027 0.14891000092 -0.29856100678 1.2041200399 0.21308499575 -0.18568199873
          1.0404800177 -0.5 0.084503702819 0.78195297718 -0.29943698645 0.031285099685
          0.77794498205 -0.5 0.24261300266 0.77619498968 -0.5 -0.05961849913
          4.091340065 0.41007000208 -0.5 4.1314902306 0.23748099804 -0.5
          4.1898999214 0.32223001122 -0.31539100409 4.289440155 0.31779500842 -0.5
          -3.1584899426 -0.5 -0.16631600261 -3.406719923 -0.26567399502 -0.27803298831
          -3.3001599312 -0.5 -0.014418800361 -3.3308799267 -0.5 -0.28216999769
          2.8543798923 -0.5 0.31709998846 2.9252800941 -0.5 0.11620400101
          3.0828099251 -0.5 0.29510200024 2.9692099094 -0.18215200305 0.27709600329
          -2.9752700329 0.12661999464 -0.5 -3.0582199097 0.31288200617 -0.29153999686
          -2.8458900452 0.23675900698 -0.5 -2.8308899403 0.31933999062 -0.31058201194
          -4.7795901299 0.30410701036 -0.28243198991 -4.7695999146 0.26816898584 -0.5
          -4.6261501312 0.17262099683 -0.1935839951 -4.5752401352 0.31679400802 -0.5
          3.4734098911 0.21108800173 -0.2205349952 3.5255100727 0.5 -0.16535499692
          3.6711499691 0.31469801068 -0.29238000512 3.6093900204 0.31306898594 -0.027008600533
          1.2840600014 -0.15874500573 -0.5 1.139539957 -0.036767199636 -0.30390501022
          1.0735499859 -0.2803800106 -0.2859480083 1.0786999464 -0.15874500573 -0.5
          -5 -0.16616299748 -0.067754097283 -5 -0.33370301127 -0.29875099659
          -5 -0.39700898528 0.035171099007 -4.9761099815 -0.5 -0.16763499379
          -1.5486299992 0.27752000093 0.017110800371 -1.8121700287 0.32682698965 0.085832998157
          -1.6647800207 0.24374599755 0.22540199757 -1.7420699596 0.2584669888 -0.11043199897
          -4.0987300873 -0.5 0.24074499309 -4.0945601463 -0.28051298857 0.31798601151
          -3.9475998878 -0.42686000466 0.5 -4.1482901573 -0.5 0.45363500714
          -4.500120163 0.30916801095 -0.29975399375 -4.5744199753 0.044033199549 -0.5
          -4.5893697739 -0.027997599915 -0.31035900116 -4.4012899399 0.03873860091 -0.27101901174
          0.098988100886 -0.5 0.3943490088 0.25332000852 -0.5 0.31911799312
          -0.012120299973 -0.32062399387 0.28174200654 0.23762199283 -0.5 0.14814600348
          -1.1352299452 -0.30921301246 -0.27610599995 -1.3521399498 -0.29692700505 -0.29181501269
          -1.1987999678 -0.5 -0.10932199657 -1.2733399868 -0.5 -0.29207199812
          -3.6472799778 0.44761100411 -0.5 -3.4066801071 0.46902000904 -0.5
          -3.6169199944 0.2079769969 -0.5 -3.4697299004 0.28407201171 -0.298379004
          4.5567698479 0.040265500546 -0.029345599934 4.5822200775 0.29958099127 -0.0073895901442
          4.3127498627 0.19265699387 0.16710400581 4.373770237 0.29578301311 -0.0035506200511
          3.4346001148 0.010584499687 0.0013051299611 3.3886699677 0.01943529956 0.25713300705
          3.6032299995 -0.0550327003 0.29886201024 3.4722599983 -0.22174499929 0.20733100176
          4.8058700562 0.17079499364 -0.0053127701394 5 0.29265201092 0.032442100346
          5 0.32882899046 -0.12744599581 5 0.16910900176 -0.16435900331
          1.4914300442 0.0569607988 -0.04182960093 1.7197300196 -0.0059337001294 -0.015229499899
          1.6828099489 -0.15067499876 0.17043499649 1.4909499884 0.035039100796 0.2443370074
          -1.6647800207 0.24374599755 0.22540199757 -1.8168400526 0.14203999937 0.32622399926
          -1.6999100447 -0.016917800531 0.25771600008 -1.730610013 -0.00066968100145 -0.0049977498129
          -4.1556100845 0.12476799637 0.5 -3.9800200462 0.29855400324 0.5
          -4.1248002052 0.32227998972 0.33130601048 -3.971339941 0.069716103375 0.5
          1.1263699532 -0.31314399838 0.27022001147 1.2525800467 -0.23895399272 0.5
          1.298789978 -0.15092399716 0.16408100724 1.4891799688 -0.27188199759 0.26980000734
          0.35873600841 0.27615499496 -0.16060699522 0.22253899276 0.29792100191 -0.30861100554
          0.20313000679 0.30061998963 0.0047877700999 0.14069800079 0.16885900497 -0.17604699731
          -0.42740899324 -0.30482000113 -0.02907329984 -0.48361599445 -0.5 -0.22838500142
          -0.47420999408 -0.29338499904 -0.29220598936 -0.59884798527 -0.5 -0.081100203097
          2.3120000362 -0.058240499347 -0.5 2.4597499371 -0.30076900125 -0.3059630096
          2.5377500057 -0.050653100014 -0.5 2.3412098885 -0.33859500289 -0.5
          -4.0997099876 -0.04042249918 -0.065122202039 -4.1479997635 0.1524810046 0.18773500621
          -3.9890100956 0.24387900531 0.0062287501059 -3.8818199635 0.0094203203917 -0.0044903801754
          2.4389500618 -0.2577829957 -0.080456696451 2.4390499592 -0.057027101517 -0.2462310046
          2.4395799637 -0.026134699583 0.038382198662 2.2014501095 -0.17346900702 -0.18166600168
          -4.6261501312 0.17262099683 -0.1935839951 -4.514550209 0.5 -0.045017201453
          -4.5506501198 0.30194398761 0.066922001541 -4.765540123 0.29459398985 -0.015708299354
          3.6450901031 -0.17131699622 -0.19211299717 3.5628299713 -0.5 -0.19047999382
          3.6328399181 -0.30484598875 0.056098300964 3.6745901108 -0.5 -0.024972600862
          2.94404006 -0.24824899435 0.048307999969 2.797960043 -0.29616799951 0.32714900374
          2.9252800941 -0.5 0.11620400101 2.7222399712 -0.5 0.087961599231
          -1.4028999805 0.13422000408 0.12791000307 -1.29381001 0.12503300607 0.31571400166
          -1.334980011 -0.066682696342 0.27562999725 -1.5232800245 0.099855400622 0.30515301228
          3.2970399857 0.30501198769 -0.2939350009 3.2461500168 0.28882101178 -0.5
          3.2905800343 0.095524303615 -0.3324739933 3.4120700359 0.12526200712 -0.5
          -3.6195299625 0.18837699294 0.1758890003 -3.6287798882 0.30937200785 0.33959800005
          -3.595760107 0.14106500149 0.5 -3.776599884 -0.0024208100513 0.27819898725
          3.3018300533 -0.5 0.38916900754 3.2869899273 -0.28170898557 0.32561299205
          3.4452700615 -0.38378500938 0.5 3.1408400536 -0.26990801096 0.5
          -4.6199498177 -0.5 -0.060735598207 -4.7693600655 -0.5 -0.069937601686
          -4.7982001305 -0.27365100384 -0.020341299474 -4.5578799248 -0.5 0.075488097966
          -4.2751197815 0.5 0.02419850044 -4.5506501198 0.30194398761 0.066922001541
          -4.3864398003 0.25989100337 -0.089046299458 -4.514550209 0.5 -0.045017201453
          -0.38922300935 -0.43621999025 -0.5 -0.56736600399 -0.5 -0.39558899403
          -0.47420999408 -0.29338499904 -0.29220598936 -0.48361599445 -0.5 -0.22838500142
          4.2976098061 0.5 -0.16453999281 4.4749798775 0.5 -0.22600099444
          4.2950100899 0.5 -0.35224300623 4.501060009 0.27867999673 -0.21826599538
          -3.3868999481 0.28687500954 0.25560098886 -3.6195299625 0.18837699294 0.1758890003
          -3.6247899532 0.5 0.17990300059 -3.6287798882 0.30937200785 0.33959800005
          4.0863099098 -0.5 0.17567700148 4.3140602112 -0.30338901281 0.040695600212
          4.1160001755 -0.25597798824 -0.023964699358 4.1762099266 -0.5 -0.073627002537
          -2.8308598995 0.31636199355 -0.103422001 -2.9498999119 0.5 -0.14169600606
          -3.0582199097 0.31288200617 -0.29153999686 -2.8308899403 0.31933999062 -0.31058201194
          -0.51341497898 -0.020596599206 0.5 -0.30416700244 0.12715099752 0.5
          -0.54225701094 0.182366997 0.5 -0.35255399346 0.016716400161 0.25871700048
          -0.30116099119 -0.5 -0.18737800419 -0.48361599445 -0.5 -0.22838500142
          -0.47420999408 -0.29338499904 -0.29220598936 -0.42740899324 -0.30482000113 -0.02907329984
          3.0071001053 0.30889099836 0.30772000551 3.095690012 0.30450299382 0.0079884901643
          3.1800200939 0.15828900039 0.1766680032 3.1571199894 0.5 0.16706800461
          -4.2221798897 -0.17677399516 -0.20671699941 -4.1503901482 0.15257999301 -0.18268600106
          -4.0997099876 -0.04042249918 -0.065122202039 -4.4012899399 0.03873860091 -0.27101901174
          -3.8897199631 -0.5 0.01333339978 -4.0987300873 -0.5 0.24074499309
          -3.8883500099 -0.22696000338 0.22436200082 -3.8540000916 -0.5 0.28207299113
          -2.141769886 0.5 -0.17799699306 -2.1895999908 0.28031998873 -0.27681100368
          -2.1567900181 0.5 -0.46172600985 -2.4157299995 0.5 -0.27320700884
          -3.7646200657 -0.015583699569 -0.5 -3.7279200554 -0.31415998936 -0.27874299884
          -3.8034300804 0.010254199617 -0.24826699495 -3.6039199829 -0.1486119926 -0.1880979985
          4.4999699593 -0.30107301474 -0.267922014 4.737279892 -0.20036800206 -0.5
          4.8028302193 -0.29806599021 -0.33157899976 4.6962199211 -0.21809899807 -0.17522199452
          -4.500120163 0.30916801095 -0.29975399375 -4.4012899399 0.03873860091 -0.27101901174
          -4.2864198685 0.30046600103 -0.30744600296 -4.3405499458 0.17424100637 -0.5
          0.71180897951 0.31379199028 -0.019653400406 0.56476098299 0.5 -0.044713400304
          0.46921399236 0.2665579915 0.056172598153 0.58461797237 0.18660899997 -0.17640599608
          -4.8396000862 0.080449603498 -0.5 -4.7847399712 0.018612299114 -0.27819800377
          -4.5744199753 0.044033199549 -0.5 -4.6226601601 -0.13244700432 -0.5
          2.9589400291 -0.2156240046 -0.5 3.099050045 -0.07797460258 -0.5
          2.8999099731 0.041673701257 -0.29681798816 2.9223198891 0.00037304600119 -0.5
          -0.18628300726 -0.26750600338 -0.029726099223 0.10427799821 -0.31776800752 -0.01549869962
          -0.012120299973 -0.32062399387 0.28174200654 -0.014323200099 -0.10396199673 0.093425601721
          -0.47073799372 -0.22246700525 0.21898700297 -0.40286201239 -0.0046954802237 -0.0054140798748
          -0.35255399346 0.016716400161 0.25871700048 -0.53887498379 -0.034443799406 0.20534600317
          2.8604700565 0.28147599101 -0.024887500331 2.966039896 0.21264900267 0.13400100172
          2.9201900959 0.0039753098972 -0.016150400043 2.6889400482 0.16072399914 0.18579299748
          0.2306600064 0.5 -0.31376600266 0.49744200706 0.32136800885 -0.31016400456
          0.42863300443 0.48355901241 -0.5 0.22253899276 0.29792100191 -0.30861100554
          3.6032299995 -0.0550327003 0.29886201024 3.657200098 0.044741101563 0.5
          3.7090001106 -0.1736509949 0.5 3.4012000561 -0.17302200198 0.5
          3.4532198906 -0.27570098639 -0.28086999059 3.2362499237 -0.1912920028 -0.17273800075
          3.1227400303 -0.30917099118 -0.31313300133 3.190030098 -0.22524799407 -0.5
          2.6809399128 0.37128800154 0.5 2.6206200123 0.32416799664 0.30228099227
          2.5758199692 0.075252600014 0.5 2.8473100662 0.22374899685 0.5
          1.2676099539 0.18327300251 0.17430500686 1.2553399801 0.02869570069 -0.044535700232
          1.0667099953 0.30986699462 -0.00099666800816 1.0260499716 0.011771400459 0.016185000539
          -3.0681700706 -0.022411899641 -0.31216698885 -3.0114998817 -0.30267500877 -0.29305499792
          -3.1430599689 -0.16607600451 -0.5 -3.1692500114 -0.17956000566 -0.18042400479
          -2.9220399857 -0.26491099596 0.30408999324 -2.7791500092 -0.49004599452 0.5
          -2.7104799747 -0.5 0.29420700669 -2.962280035 -0.5 0.2204490006
          -4.1164798737 0.5 -0.23297099769 -4.2864198685 0.30046600103 -0.30744600296
          -4.3864398003 0.25989100337 -0.089046299458 -4.2024998665 0.29241999984 0.027058599517
          -2.7104799747 -0.5 0.29420700669 -2.6965899467 -0.25478899479 0.070601798594
          -2.8101699352 -0.5 0.047830801457 -2.5808300972 -0.5 0.066097401083
          1.4679900408 -0.23194299638 -0.032342601568 1.3733700514 -0.33255699277 0.11544699967
          1.2443100214 -0.5 -0.079079799354 1.1665500402 -0.30232200027 0.032807700336
          4.1566100121 -0.27463600039 -0.28568801284 4.4999699593 -0.30107301474 -0.267922014
          4.3278198242 -0.19421100616 -0.1541839987 4.3479599953 -0.069560296834 -0.31158301234
          4.5178999901 -0.10659900308 -0.17478400469 4.4999699593 -0.30107301474 -0.267922014
          4.3479599953 -0.069560296834 -0.31158301234 4.3278198242 -0.19421100616 -0.1541839987
          1.1665500402 -0.30232200027 0.032807700336 0.96319800615 -0.25574100018 -0.086030602455
          1.0735499859 -0.2803800106 -0.2859480083 1.2388900518 -0.17473700643 -0.16655999422
          1.7132099867 0.18727500737 0.17964400351 1.818590045 0.3155849874 0.32314199209
          1.9609899521 0.27691298723 0.076514601707 1.9551000595 0.040498699993 0.28340399265
          3.7566299438 0.15342700481 -0.14512400329 3.867939949 0.29484701157 -0.023631099612
          4.0157899857 0.23598599434 -0.23627699912 3.8543400764 -0.043197199702 -0.061682298779
          4.7205901146 0.28053200245 -0.5 5 0.35498699546 -0.28927499056
          4.7633600235 0.5 -0.40220698714 4.9258999825 0.37107500434 -0.5
          -3.012720108 0.29143700004 0.30083501339 -3.177740097 0.19153399765 0.19352599978
          -3.2058999538 0.30942299962 0.5 -3.1307299137 0.1212079972 0.5
          0.89332699776 0.23076300323 -0.16234900057 0.71180897951 0.31379199028 -0.019653400406
          0.73280501366 0.2939440012 -0.30173701048 0.70714598894 0.5 -0.22382299602
          0.59722298384 -0.5 0.24278099835 0.40799000859 -0.5 0.24458500743
          0.5135999918 -0.5 0.087553098798 0.37961798906 -0.27483201027 0.3045360148
          2.4715499878 0.29645401239 0.5 2.2269999981 0.29644799232 0.5
          2.4116399288 0.33501198888 0.26824301481 2.2874000072 0.5 0.36383101344
          0.17147399485 -0.046462800354 -0.28626099229 -0.01470979955 -0.077135197818 -0.5
          -0.11357299984 -0.14485199749 -0.33142700791 0.02034159936 -0.29206499457 -0.27554398775
          3.1172299385 -0.5 0.090180002153 2.9252800941 -0.5 0.11620400101
          3.0969901085 -0.5 -0.1024639979 2.94404006 -0.24824899435 0.048307999969
          -4.623360157 -0.31539899111 -0.5 -4.7598800659 -0.5 -0.39154198766
          -4.5859699249 -0.5 -0.20652399957 -4.4034199715 -0.5 -0.43696299195
          2.7771201134 0.5 0.34628498554 2.8141000271 0.33296000957 0.21601100266
          2.8473100662 0.22374899685 0.5 3.0071001053 0.30889099836 0.30772000551
          2.8704299927 -0.5 -0.1951110065 3.0969901085 -0.5 -0.1024639979
          2.9252800941 -0.5 0.11620400101 2.809910059 -0.30858701468 -0.088228099048
          5 -0.40549901128 0.09935849905 4.814139843 -0.29069000483 0.014058699831
          5 -0.20979200304 0.28537601233 4.8106999397 -0.29430899024 0.31109198928
          -2.4123599529 0.30793198943 -0.0017855500337 -2.5539898872 0.16441999376 -0.075327299535
          -2.4949100018 0.29038199782 -0.30940899253 -2.6490800381 0.5 -0.17990100384
          0.96667098999 0.22423000634 0.21116599441 1.142539978 0.300906986 0.29215401411
          0.98735398054 0.096338197589 0.5 0.94293701649 0.27613300085 0.5
          -1.6647800207 0.24374599755 0.22540199757 -1.9560199976 0.18910500407 0.17773799598
          -1.8168400526 0.14203999937 0.32622399926 -1.730610013 -0.00066968100145 -0.0049977498129
          -2.0084600449 0.5 0.30924999714 -2.0332100391 0.28143399954 0.34608799219
          -1.9560199976 0.18910500407 0.17773799598 -2.131000042 0.5 0.14166200161
          -4.2659602165 0.28228399158 0.5 -4.1479997635 0.1524810046 0.18773500621
          -4.1248002052 0.32227998972 0.33130601048 -4.4165802002 0.22745400667 0.23878499866
          3.1227400303 -0.30917099118 -0.31313300133 3.2362499237 -0.1912920028 -0.17273800075
          3.18708992 -0.32281601429 -0.009787529707 2.9524600506 -0.22408300638 -0.21185599267
          -0.10501199961 -0.31161299348 0.5 -0.012120299973 -0.32062399387 0.28174200654
          0.098988100886 -0.5 0.3943490088 0.21745100617 -0.25824698806 0.5
          -4.2751197815 0.5 0.02419850044 -4.4328398705 0.5 0.16251300275
          -4.2024998665 0.29241999984 0.027058599517 -4.5506501198 0.30194398761 0.066922001541
          -3.0793800354 -0.5 0.028451299295 -2.9412100315 -0.31262499094 -0.011466300115
          -3.1584899426 -0.5 -0.16631600261 -2.9510200024 -0.5 -0.15621200204
          3.5255100727 0.5 -0.16535499692 3.2946200371 0.5 -0.20856200159
          3.3437099457 0.5 0.098416596651 3.3688399792 0.28460401297 0.022468499839
          2.9524600506 -0.22408300638 -0.21185599267 2.6700599194 -0.18108099699 -0.17258299887
          2.7792201042 -0.32771399617 -0.28562399745 2.6635499001 -0.0075318100862 -0.31723999977
          4.5328397751 -0.5 0.28382301331 4.8106999397 -0.29430899024 0.31109198928
          4.8184399605 -0.5 0.27545198798 4.742000103 -0.5 0.47397199273
          -0.72934299707 0.47740399837 -0.5 -0.68140697479 0.28639298677 -0.28938999772
          -0.75955200195 0.2530399859 -0.5 -0.80325001478 0.5 -0.29217898846
          5 -0.29155600071 -0.27424201369 5 -0.14510799944 -0.050927400589
          4.9067702293 -0.5 -0.13576300442 4.814139843 -0.29069000483 0.014058699831
          -4.3976202011 -0.16255900264 0.25912800431 -4.439789772 -0.27735000849 -0.054897699505
          -4.411260128 -0.00020594299713 -0.0010824199999 -4.5685501099 -0.12892700732 -0.0029087499715
          -2.7017800808 -0.045854199678 -0.5 -2.9157800674 -0.27548700571 -0.5
          -2.9389500618 -0.039363101125 -0.5 -2.8483600616 -0.1823129952 -0.18523199856
          4.039850235 -0.20272299647 0.21478900313 4.2311301231 -0.28602001071 0.30712598562
          4.3140602112 -0.30338901281 0.040695600212 4.1160001755 -0.25597798824 -0.023964699358
          4.0863099098 -0.5 0.17567700148 4.296959877 -0.5 0.12259899825
          4.3140602112 -0.30338901281 0.040695600212 4.1762099266 -0.5 -0.073627002537
          4.8295898438 0.25321400166 0.5 5 0.27808099985 0.26434999704
          4.9611001015 0.5 0.44039601088 4.8042798042 0.5 0.31367200613
          -0.29023098946 -0.5 -0.36567699909 -0.48361599445 -0.5 -0.22838500142
          -0.47420999408 -0.29338499904 -0.29220598936 -0.30116099119 -0.5 -0.18737800419
          -2.9205000401 0.31499001384 0.5 -3.012720108 0.29143700004 0.30083501339
          -3.2058999538 0.30942299962 0.5 -3.1307299137 0.1212079972 0.5
          -1.5214099884 -0.5 0.34752699733 -1.5302300453 -0.20296399295 0.1751369983
          -1.3444800377 -0.30236798525 0.28137201071 -1.637830019 -0.34564900398 0.5
          -4.2659602165 0.28228399158 0.5 -4.0860900879 0.5 0.47527000308
          -4.261590004 0.5 0.28367200494 -4.1248002052 0.32227998972 0.33130601048
          -1.7749300003 -0.093701399863 0.5 -1.9607599974 -0.22289100289 0.5
          -1.7268799543 -0.26261898875 0.29539200664 -1.9215400219 -0.19377499819 0.17684599757
          3.7777900696 0.29186201096 -0.5 3.6711499691 0.31469801068 -0.29238000512
          3.8109300137 0.5 -0.32591500878 4.0157899857 0.23598599434 -0.23627699912
          -1.637830019 -0.34564900398 0.5 -1.9607599974 -0.22289100289 0.5
          -1.8273899555 -0.5 0.4705440104 -1.7268799543 -0.26261898875 0.29539200664
          0.67495399714 0.10961399972 -0.5 0.58461797237 0.18660899997 -0.17640599608
          0.71499300003 0.033225100487 -0.28708100319 0.50762802362 0.094153903425 -0.5
          0.67495399714 0.10961399972 -0.5 0.71499300003 0.033225100487 -0.28708100319
          0.5808069706 -0.057113301009 -0.5 0.50762802362 0.094153903425 -0.5
          0.50762802362 0.094153903425 -0.5 0.3679780066 0.042948998511 -0.26218301058
          0.5808069706 -0.057113301009 -0.5 0.39225000143 -0.090401999652 -0.5
          2.5257198811 0.5 0.37575000525 2.7771201134 0.5 0.34628498554
          2.6206200123 0.32416799664 0.30228099227 2.6809399128 0.37128800154 0.5
          -4.0997099876 -0.04042249918 -0.065122202039 -4.1503901482 0.15257999301 -0.18268600106
          -4.2314600945 0.092286400497 0.01309709996 -4.4012899399 0.03873860091 -0.27101901174
          -3.8861699104 0.22745600343 0.24729199708 -4.1479997635 0.1524810046 0.18773500621
          -3.971339941 0.069716103375 0.5 -4.0238199234 -0.033451199532 0.28527000546
          0.71180897951 0.31379199028 -0.019653400406 0.69335997105 0.13933600485 0.14205299318
          0.96667098999 0.22423000634 0.21116599441 0.87731397152 0.049460299313 0.15210199356
          4.6908898354 0.5 -0.18460099399 5 0.32882899046 -0.12744599581
          4.8203802109 0.5 -0.047230999917 5 0.35498699546 -0.28927499056
          -2.2719900608 -0.32766199112 0.080448098481 -2.1942100525 -0.27436101437 -0.10729199648
          -2.4208400249 -0.17098300159 -0.17608100176 -2.4605801105 -0.31329700351 0.0017525800504
          -1.2071299553 -0.056219801307 0.5 -1.1438100338 0.013993400149 0.21154500544
          -1.1246000528 -0.21291700006 0.24169400334 -0.93832302094 -0.045258000493 0.24930199981
          2.6477799416 0.16645799577 -0.17383100092 2.2796599865 0.15909999609 -0.20078100264
          2.4390499592 -0.057027101517 -0.2462310046 2.4688100815 0.27537798882 -0.28756999969
          -1.1722400188 -0.078797601163 -0.24050499499 -0.98949998617 -0.096335403621 -0.5
          -0.93913400173 -0.20071199536 -0.20192199945 -0.96304500103 0.042934101075 -0.20367699862
          -0.70035898685 -0.45424199104 0.5 -0.80443400145 -0.5 0.34285399318
          -0.65928399563 -0.29948800802 0.30083200336 -0.74638098478 -0.26905399561 0.5
          -1.7309900522 0.022700900212 -0.2696749866 -2.0033299923 0.17082899809 -0.16009199619
          -1.9655499458 0.017111200839 0.015656199306 -1.9522600174 -0.011583000422 -0.29229301214
          2.9622399807 -0.48268601298 0.5 3.0828099251 -0.5 0.29510200024
          3.3018300533 -0.5 0.38916900754 3.1408400536 -0.26990801096 0.5
          2.7815999985 0.20081700385 -0.5 2.8999099731 0.041673701257 -0.29681798816
          3.0909199715 0.094946503639 -0.5 2.9223198891 0.00037304600119 -0.5
          3.1808700562 0.17408800125 -0.17278499901 3.0909199715 0.094946503639 -0.5
          3.0563700199 0.30440598726 -0.29042899609 3.120470047 -0.021967599168 -0.27757799625
          0.49744200706 0.32136800885 -0.31016400456 0.58461797237 0.18660899997 -0.17640599608
          0.67495399714 0.10961399972 -0.5 0.50762802362 0.094153903425 -0.5
          1.9453500509 -0.087545797229 -0.2573390007 1.7917699814 -0.17960299551 -0.5
          1.8699899912 -0.30787700415 -0.26772201061 2.042320013 -0.28687000275 -0.5
          -1.9560199976 0.18910500407 0.17773799598 -1.730610013 -0.00066968100145 -0.0049977498129
          -1.6647800207 0.24374599755 0.22540199757 -1.8121700287 0.32682698965 0.085832998157
          3.190030098 -0.22524799407 -0.5 3.099050045 -0.07797460258 -0.5
          3.120470047 -0.021967599168 -0.27757799625 3.1227400303 -0.30917099118 -0.31313300133
          -1.890920043 -0.16450600326 -0.5 -2.0815498829 -0.33450999856 -0.28891399503
          -1.8430000544 -0.33087998629 -0.29164901376 -1.868549943 -0.36587700248 -0.5
          0.78195297718 -0.29943698645 0.031285099685 0.76386100054 -0.10622999817 0.089437901974
          0.58512401581 -0.18639500439 0.18318599463 0.57815998793 -0.31825500727 -0.050177000463
          -1.9649800062 -0.0049698902294 0.29592001438 -1.9215400219 -0.19377499819 0.17684599757
          -1.9655499458 0.017111200839 0.015656199306 -2.187210083 -0.061865199357 0.039609499276
          -2.8985300064 0.5 0.19352899492 -3.2138299942 0.5 0.12549799681
          -3.0080699921 0.29238799214 0.028416100889 -3.1328499317 0.5 -0.05846099928
          2.0364201069 0.5 -0.27101698518 2.2502601147 0.5 -0.1980600059
          2.2679901123 0.5 -0.42606198788 2.2007598877 0.32477998734 -0.29550099373
          4.4824900627 -0.2778429985 0.28902798891 4.4160299301 -0.33252999187 0.5
          4.2311301231 -0.28602001071 0.30712598562 4.2901201248 -0.17937499285 0.5
          -2.9412100315 -0.31262499094 -0.011466300115 -2.8483600616 -0.1823129952 -0.18523199856
          -2.7003099918 -0.5 -0.15431599319 -2.6965899467 -0.25478899479 0.070601798594
          1.2285900116 0.5 1.5277299099e-05 1.142539978 0.300906986 0.29215401411
          1.0667099953 0.30986699462 -0.00099666800816 1.0695999861 0.5 0.21742899716
          -3.8436501026 -0.17188200355 -0.5 -3.7279200554 -0.31415998936 -0.27874299884
          -3.9185600281 -0.21505500376 -0.20922599733 -3.8034300804 0.010254199617 -0.24826699495
          -1.728489995 -0.2819840014 0.029070099816 -1.6999100447 -0.016917800531 0.25771600008
          -1.7268799543 -0.26261898875 0.29539200664 -1.9215400219 -0.19377499819 0.17684599757
          -0.012120299973 -0.32062399387 0.28174200654 -0.10501199961 -0.31161299348 0.5
          -0.29698100686 -0.33138298988 0.28727200627 -0.17885400355 -0.17817400396 0.19088800251
          -4.7207899094 -0.18141900003 0.5 -4.8936700821 -0.25269600749 0.5
          -4.794549942 -0.32775598764 0.30355900526 -4.8052501678 -0.030253799632 0.27854898572
          3.5066199303 0.45685198903 0.5 3.353579998 0.25871399045 0.31244799495
          3.495059967 0.19994699955 0.5 3.5264201164 0.5 0.31256499887
          -3.8885200024 0.43526899815 -0.5 -3.6472799778 0.44761100411 -0.5
          -3.8300800323 0.22917799652 -0.5 -3.7156999111 0.29170098901 -0.33228498697
          1.4860899448 0.23913800716 -0.2658199966 1.6601899862 0.29914501309 -0.0094896201044
          1.7617299557 0.19749200344 -0.18400299549 1.4914300442 0.0569607988 -0.04182960093
          2.4390499592 -0.057027101517 -0.2462310046 2.3120000362 -0.058240499347 -0.5
          2.5377500057 -0.050653100014 -0.5 2.4803700447 0.1678159982 -0.5
          -0.92897802591 0.46998101473 0.5 -0.92035800219 0.31782001257 0.33497199416
          -1.174579978 0.41473001242 0.5 -0.96254199743 0.19088900089 0.5
          0.75085902214 -0.045475300401 0.28253901005 0.813831985 0.031614098698 0.5
          0.68295001984 -0.13473699987 0.5 0.5860620141 0.083102703094 0.5
          2.2269999981 0.29644799232 0.5 2.1093399525 0.13601699471 0.5
          2.1986699104 0.16770100594 0.18445199728 2.0367600918 0.30077698827 0.30471900105
          -1.5232800245 0.099855400622 0.30515301228 -1.6577099562 0.12280199677 0.5
          -1.6999100447 -0.016917800531 0.25771600008 -1.8168400526 0.14203999937 0.32622399926
          -0.18946300447 0.17974199355 -0.1773750037 -0.169242993 0.019168399274 -0.0072063799016
          0.14069800079 0.16885900497 -0.17604699731 -0.028405899182 0.038570299745 -0.28863999248
          -3.2381598949 0.5 -0.3880290091 -3.0582199097 0.31288200617 -0.29153999686
          -3.1714200974 0.28492799401 -0.5 -3.2586500645 0.20448499918 -0.21992500126
          3.1475300789 -0.43508601189 -0.5 3.2248399258 -0.5 -0.3111949861
          3.1227400303 -0.30917099118 -0.31313300133 3.190030098 -0.22524799407 -0.5
          3.18708992 -0.32281601429 -0.009787529707 3.1172299385 -0.5 0.090180002153
          3.3018300533 -0.5 0.031524900347 3.0969901085 -0.5 -0.1024639979
          -2.4605801105 -0.31329700351 0.0017525800504 -2.32543993 -0.5 -0.016557699069
          -2.5808300972 -0.5 0.066097401083 -2.4806699753 -0.5 0.25502499938
          4.1898999214 0.32223001122 -0.31539100409 4.2944598198 0.20695400238 -0.17472800612
          4.289440155 0.31779500842 -0.5 4.2942700386 0.099316298962 -0.5
          -0.012120299973 -0.32062399387 0.28174200654 0.21745100617 -0.25824698806 0.5
          0.03605210036 -0.1630679965 0.5 0.15296399593 -0.18104599416 0.18370200694
          -0.47073799372 -0.22246700525 0.21898700297 -0.17885400355 -0.17817400396 0.19088800251
          -0.35255399346 0.016716400161 0.25871700048 -0.40286201239 -0.0046954802237 -0.0054140798748
          4.7783799171 -0.058915100992 0.015639599413 4.8058700562 0.17079499364 -0.0053127701394
          5 0.029062800109 0.15694400668 4.794479847 -0.0099189598113 0.26575800776
          2.6635499001 -0.0075318100862 -0.31723999977 2.6700599194 -0.18108099699 -0.17258299887
          2.7578799725 -0.10127799958 -0.5 2.5818200111 -0.276602 -0.5
          3.8334798813 -0.29951399565 -0.035472199321 4.1160001755 -0.25597798824 -0.023964699358
          4.0018801689 -0.5 -0.21358500421 3.9580099583 -0.5 0.00037011300446
          -2.6367399693 0.26534798741 0.078260503709 -2.8308598995 0.31636199355 -0.103422001
          -2.6850099564 0.20022499561 -0.22423900664 -2.6490800381 0.5 -0.17990100384
          -3.5796399117 -0.036828301847 0.30965799093 -3.7068300247 -0.31349000335 0.29142400622
          -3.5133900642 -0.13522699475 0.5 -3.4786798954 -0.29719600081 0.28423199058
          -4.4496002197 0.5 -0.48874101043 -4.500120163 0.30916801095 -0.29975399375
          -4.2864198685 0.30046600103 -0.30744600296 -4.3405499458 0.17424100637 -0.5
          2.9862799644 0.5 0.48882699013 3.0071001053 0.30889099836 0.30772000551
          3.1938300133 0.27075499296 0.5 3.2087500095 0.49311301112 0.5
          -2.6850099564 0.20022499561 -0.22423900664 -2.8274400234 0.051215600222 -0.3225030005
          -2.9755399227 0.12714900076 -0.1661580056 -2.8699100018 0.034952599555 0.013808799908
          0.27188199759 -0.21608300507 -0.19496400654 0.17147399485 -0.046462800354 -0.28626099229
          -0.014450499788 -0.12391400337 -0.11072800308 0.02034159936 -0.29206499457 -0.27554398775
          0.68295001984 -0.13473699987 0.5 0.46630200744 0.046083901078 0.25881299376
          0.75085902214 -0.045475300401 0.28253901005 0.5860620141 0.083102703094 0.5
          4.1836500168 0.5 0.32843101025 3.9605000019 0.5 0.34884899855
          4.1271901131 0.47496300936 0.5 4.1333699226 0.29578199983 0.28484800458
          -4.697619915 0.5 -0.22214700282 -4.7795901299 0.30410701036 -0.28243198991
          -4.936150074 0.5 -0.080450102687 -4.765540123 0.29459398985 -0.015708299354
          0.39225000143 -0.090401999652 -0.5 0.27188199759 -0.21608300507 -0.19496400654
          0.29461199045 -0.27944099903 -0.5 0.17147399485 -0.046462800354 -0.28626099229
          -0.93892097473 -0.041356798261 0.5 -0.96254199743 0.19088900089 0.5
          -0.93832302094 -0.045258000493 0.24930199981 -0.70620900393 0.037291798741 0.28922000527
          -3.1326100826 -0.026751099154 0.30142500997 -3.2471899986 -0.22948899865 0.5
          -3.1171200275 -0.32041800022 0.23436300457 -3.2899799347 -0.19551900029 0.21153800189
          1.6971999407 -0.18535399437 -0.17042499781 1.4673299789 -0.16130299866 -0.30513200164
          1.673140049 -0.32074698806 -0.32187500596 1.6074999571 0.030789300799 -0.26509699225
          2.4389500618 -0.2577829957 -0.080456696451 2.498290062 -0.5 0.11315499991
          2.5833399296 -0.5 -0.06280399859 2.3607499599 -0.5 -0.025692699477
          -2.4123599529 0.30793198943 -0.0017855500337 -2.3996500969 0.17564900219 0.17784799635
          -2.5539898872 0.16441999376 -0.075327299535 -2.6367399693 0.26534798741 0.078260503709
          -0.38609901071 0.25310799479 0.3300819993 -0.71377199888 0.30195298791 0.28811401129
          -0.62944000959 0.5 0.34010401368 -0.46542999148 0.5 0.387439996
          -2.8308899403 0.31933999062 -0.31058201194 -2.8458900452 0.23675900698 -0.5
          -2.6168899536 0.31174701452 -0.5 -2.7123599052 0.5 -0.38375499845
          2.5377500057 -0.050653100014 -0.5 2.6635499001 -0.0075318100862 -0.31723999977
          2.5818200111 -0.276602 -0.5 2.4597499371 -0.30076900125 -0.3059630096
          -0.93892097473 -0.041356798261 0.5 -0.95835602283 -0.27399000525 0.5
          -0.74638098478 -0.26905399561 0.5 -0.87598198652 -0.27951401472 0.27214699984
          -3.7612600327 0.27116200328 0.015408799984 -3.9890100956 0.24387900531 0.0062287501059
          -3.8861699104 0.22745600343 0.24729199708 -3.8818199635 0.0094203203917 -0.0044903801754
          4.3434801102 -0.13885499537 0.17381000519 4.5567698479 0.040265500546 -0.029345599934
          4.317220211 0.013630899601 -0.032561101019 4.5181698799 -0.25569599867 -0.00080205698032
          -3.9185600281 -0.21505500376 -0.20922599733 -3.8106400967 -0.5 -0.18066500127
          -4.0849199295 -0.30423098803 -0.31639400125 -4.0541300774 -0.5 -0.16820600629
          4.1566100121 -0.27463600039 -0.28568801284 3.9538800716 -0.19349299371 -0.21224999428
          4.0018801689 -0.5 -0.21358500421 3.92689991 -0.25916099548 -0.5
          -0.29334101081 0.37132000923 0.5 -0.30416700244 0.12715099752 0.5
          -0.11969800293 0.24129599333 0.5 -0.38609901071 0.25310799479 0.3300819993
          -2.6997199059 -0.29153099656 -0.5 -2.9157800674 -0.27548700571 -0.5
          -2.8483600616 -0.1823129952 -0.18523199856 -2.8245999813 -0.5 -0.29598200321
          -2.568860054 0.328433007 0.33221000433 -2.2191998959 0.31082698703 0.26025301218
          -2.3996500969 0.17564900219 0.17784799635 -2.4461400509 0.30663898587 0.5
          3.190030098 -0.22524799407 -0.5 3.120470047 -0.021967599168 -0.27757799625
          3.2362499237 -0.1912920028 -0.17273800075 3.1227400303 -0.30917099118 -0.31313300133
          1.142539978 0.300906986 0.29215401411 1.1859600544 0.5 0.33510899544
          1.1301300526 0.30475699902 0.5 1.0224000216 0.5 0.41114699841
          1.4897999763 0.29271999002 0.26752799749 1.2676099539 0.18327300251 0.17430500686
          1.4909499884 0.035039100796 0.2443370074 1.4356100559 0.30725300312 0.014958400279
          -3.1328499317 0.5 -0.05846099928 -3.2857298851 0.5 -0.18894700706
          -3.2138299942 0.5 0.12549799681 -3.3652899265 0.29221200943 0.018539199606
          -1.8892199993 -0.5 -0.034159000963 -2.0675001144 -0.32273799181 0.069159403443
          -2.03008008 -0.5 0.23870000243 -2.0754799843 -0.5 -0.065173096955
          -0.6270070076 -0.18018999696 -0.18880400062 -0.62403798103 0.035430200398 0.037675399333
          -0.40286201239 -0.0046954802237 -0.0054140798748 -0.53925698996 -0.14979499578 0.041408799589
          4.3918099403 0.5 0.31080400944 4.4985699654 0.29182401299 0.2750479877
          4.3127498627 0.19265699387 0.16710400581 4.1333699226 0.29578199983 0.28484800458
          4.4943199158 0.06769169867 -0.29010298848 4.7696099281 -0.016697799787 -0.29300200939
          4.5178999901 -0.10659900308 -0.17478400469 4.5567698479 0.040265500546 -0.029345599934
          -2.6965899467 -0.25478899479 0.070601798594 -2.7003099918 -0.5 -0.15431599319
          -2.5808300972 -0.5 0.066097401083 -2.4605801105 -0.31329700351 0.0017525800504
          -1.670410037 -0.23073199391 -0.21768200397 -1.8430000544 -0.33087998629 -0.29164901376
          -1.728489995 -0.2819840014 0.029070099816 -1.7730799913 -0.5 -0.18303699791
          2.9765999317 0.15742999315 -0.14321500063 3.120470047 -0.021967599168 -0.27757799625
          2.9201900959 0.0039753098972 -0.016150400043 3.1624600887 -0.015569499694 -0.02179059945
          -1.7309900522 0.022700900212 -0.2696749866 -1.890920043 -0.16450600326 -0.5
          -1.8430000544 -0.33087998629 -0.29164901376 -1.670410037 -0.23073199391 -0.21768200397
          -0.36137199402 0.054711200297 -0.5 -0.47644600272 0.21734400094 -0.22011299431
          -0.46267700195 -0.020818000659 -0.27643701434 -0.55288797617 0.023504899815 -0.5
          1.4860899448 0.23913800716 -0.2658199966 1.51098001 0.18941000104 -0.5
          1.3415499926 0.046351000667 -0.2966940105 1.6074999571 0.030789300799 -0.26509699225
          -3.8818199635 0.0094203203917 -0.0044903801754 -4.0238199234 -0.033451199532 0.28527000546
          -3.8883500099 -0.22696000338 0.22436200082 -4.1423802376 -0.18350799382 0.11192400008
          4.2944598198 0.20695400238 -0.17472800612 4.0785198212 0.2688550055 0.022481000051
          4.373770237 0.29578301311 -0.0035506200511 4.317220211 0.013630899601 -0.032561101019
          -3.822799921 0.5 -0.16184200346 -3.7612600327 0.27116200328 0.015408799984
          -3.8989500999 0.24744200706 -0.23554000258 -3.9890100956 0.24387900531 0.0062287501059
          0.59722298384 -0.5 0.24278099835 0.37961798906 -0.27483201027 0.3045360148
          0.5135999918 -0.5 0.087553098798 0.58512401581 -0.18639500439 0.18318599463
          4.7783799171 -0.058915100992 0.015639599413 4.7025499344 0.19734199345 0.20103999972
          4.8058700562 0.17079499364 -0.0053127701394 4.794479847 -0.0099189598113 0.26575800776
          4.373770237 0.29578301311 -0.0035506200511 4.4144301414 0.5 -0.014668799937
          4.2976098061 0.5 -0.16453999281 4.4749798775 0.5 -0.22600099444
          4.794479847 -0.0099189598113 0.26575800776 4.8295898438 0.25321400166 0.5
          5 0.087072201073 0.42495000362 4.7967801094 -0.036810200661 0.5
          -0.92897802591 0.46998101473 0.5 -0.67730498314 0.46419098973 0.5
          -0.79987299442 0.5 0.33046600223 -0.7510010004 0.25560700893 0.5
          -3.3607699871 0.21685799956 -0.5 -3.4697299004 0.28407201171 -0.298379004
          -3.387419939 -0.020452000201 -0.26496699452 -3.5893199444 0.032997198403 -0.29434099793
          -1.5096600056 -0.035843800753 0.024828599766 -1.728489995 -0.2819840014 0.029070099816
          -1.3964400291 -0.3062709868 0.030771600083 -1.4028300047 -0.15640300512 -0.13328300416
          -1.2095999718 -0.31749498844 -0.5 -1.4115899801 -0.27296701074 -0.5
          -1.2810100317 -0.16105599701 -0.5 -1.3521399498 -0.29692700505 -0.29181501269
          -0.57590299845 0.34252899885 -0.5 -0.60728102922 0.5 -0.3106789887
          -0.72934299707 0.47740399837 -0.5 -0.41667899489 0.5 -0.48140498996
          -0.35255399346 0.016716400161 0.25871700048 -0.38609901071 0.25310799479 0.3300819993
          -0.54225701094 0.182366997 0.5 -0.55149698257 0.19303299487 0.18695600331
          3.1624600887 -0.015569499694 -0.02179059945 3.095690012 0.30450299382 0.0079884901643
          3.1800200939 0.15828900039 0.1766680032 2.966039896 0.21264900267 0.13400100172
          3.3018300533 -0.5 0.38916900754 3.0828099251 -0.5 0.29510200024
          3.1172299385 -0.5 0.090180002153 3.2869899273 -0.28170898557 0.32561299205
          0.5808069706 -0.057113301009 -0.5 0.48660299182 -0.097960598767 -0.14581799507
          0.52369099855 -0.25701698661 -0.29001700878 0.3679780066 0.042948998511 -0.26218301058
          1.5854899883 0.5 -0.19192999601 1.5800199509 0.5 0.11975900084
          1.6601899862 0.29914501309 -0.0094896201044 1.4356100559 0.30725300312 0.014958400279
          4.1193199158 0.19485099614 0.5 4.2926101685 0.022265100852 0.30176800489
          4.1333699226 0.29578199983 0.28484800458 4.0886101723 0.063145399094 0.2613709867
          -0.21006199718 -0.066769301891 -0.5 -0.24800799787 0.0088232699782 -0.29918900132
          -0.29398798943 -0.19200000167 -0.2282319963 -0.46267700195 -0.020818000659 -0.27643701434
          4.8905501366 0.13403299451 -0.5 5 0.35498699546 -0.28927499056
          4.7205901146 0.28053200245 -0.5 4.9258999825 0.37107500434 -0.5
          1.4243400097 -0.5 0.34605500102 1.2694100142 -0.5 0.16097800434
          1.4919899702 -0.5 0.0043379599229 1.3733700514 -0.33255699277 0.11544699967
          1.6828099489 -0.15067499876 0.17043499649 1.8764899969 -0.15924200416 -0.081890702248
          1.8789199591 -0.10240700096 0.16247299314 1.7197300196 -0.0059337001294 -0.015229499899
          0.95045101643 -0.36442101002 0.5 1.0404800177 -0.5 0.42839100957
          0.92648899555 -0.5 0.31108599901 0.84539800882 -0.5 0.45313599706
          -0.42740899324 -0.30482000113 -0.02907329984 -0.22633899748 -0.5 0.0026503999252
          -0.3753170073 -0.5 0.14234599471 -0.18628300726 -0.26750600338 -0.029726099223
          -0.55561101437 -0.26461198926 0.5 -0.29698100686 -0.33138298988 0.28727200627
          -0.48325100541 -0.5 0.32274898887 -0.38991400599 -0.43623900414 0.5
          -3.4390599728 0.16396200657 -0.12648099661 -3.2586500645 0.20448499918 -0.21992500126
          -3.353219986 0.018101999536 -0.0069937198423 -3.3652899265 0.29221200943 0.018539199606
          2.2314100266 -0.30056801438 0.0065283500589 2.4389500618 -0.2577829957 -0.080456696451
          2.2014501095 -0.17346900702 -0.18166600168 2.2389800549 -0.33469301462 -0.31423199177
          -1.6403199434 -0.1704210043 -0.5 -1.890920043 -0.16450600326 -0.5
          -1.670410037 -0.23073199391 -0.21768200397 -1.8430000544 -0.33087998629 -0.29164901376
          3.2362499237 -0.1912920028 -0.17273800075 3.1624600887 -0.015569499694 -0.02179059945
          2.94404006 -0.24824899435 0.048307999969 2.9524600506 -0.22408300638 -0.21185599267
          -3.387419939 -0.020452000201 -0.26496699452 -3.6039199829 -0.1486119926 -0.1880979985
          -3.4054200649 -0.24873800576 -0.029902800918 -3.406719923 -0.26567399502 -0.27803298831
          3.424779892 -0.5 0.16588500142 3.4999299049 -0.5 -8.444820196e-06
          3.4506099224 -0.25270500779 -0.04623780027 3.3018300533 -0.5 0.031524900347
          1.4914300442 0.0569607988 -0.04182960093 1.6601899862 0.29914501309 -0.0094896201044
          1.7617299557 0.19749200344 -0.18400299549 1.7197300196 -0.0059337001294 -0.015229499899
          3.6711499691 0.31469801068 -0.29238000512 3.803839922 0.5 0.0072177099064
          3.8109300137 0.5 -0.32591500878 3.9085800648 0.5 -0.15719300508
          3.9115200043 0.5 0.15832599998 3.730809927 0.29602000117 0.3136009872
          3.9605000019 0.5 0.34884899855 3.8664000034 0.19483299553 0.16909499466
          1.0831899643 -0.026730500162 0.28337299824 0.96667098999 0.22423000634 0.21116599441
          1.0260499716 0.011771400459 0.016185000539 1.2676099539 0.18327300251 0.17430500686
          -0.47073799372 -0.22246700525 0.21898700297 -0.53887498379 -0.034443799406 0.20534600317
          -0.35255399346 0.016716400161 0.25871700048 -0.51341497898 -0.020596599206 0.5
          4.6962199211 -0.21809899807 -0.17522199452 5 -0.14510799944 -0.050927400589
          5 -0.025442499667 -0.21136300266 5 -0.29155600071 -0.27424201369
          2.6795399189 -0.26569700241 0.5 2.4968700409 -0.3149009943 0.5
          2.6250600815 -0.5 0.26846000552 2.4458899498 -0.25059598684 0.23923400044
          4.2944598198 0.20695400238 -0.17472800612 4.4943199158 0.06769169867 -0.29010298848
          4.317220211 0.013630899601 -0.032561101019 4.5567698479 0.040265500546 -0.029345599934
          3.9538800716 -0.19349299371 -0.21224999428 3.7685399055 -0.11422099918 -0.34736299515
          3.92689991 -0.25916099548 -0.5 3.9156999588 -0.083973996341 -0.5
          2.4389500618 -0.2577829957 -0.080456696451 2.6700599194 -0.18108099699 -0.17258299887
          2.4395799637 -0.026134699583 0.038382198662 2.4390499592 -0.057027101517 -0.2462310046
          0.46921399236 0.2665579915 0.056172598153 0.3682860136 0.00067014299566 0.0082637900487
          0.20313000679 0.30061998963 0.0047877700999 0.25142499804 0.20395800471 0.20601199567
          2.9692099094 -0.18215200305 0.27709600329 2.7103700638 -0.17533199489 0.17696000636
          2.9353599548 0.054025001824 0.25657498837 2.8023600578 -0.042083900422 0.5
          1.7531599998 0.5 0.036465600133 1.5800199509 0.5 0.11975900084
          1.7132099867 0.18727500737 0.17964400351 1.6601899862 0.29914501309 -0.0094896201044
          0.3798109889 -0.11770299822 0.17650899291 0.46630200744 0.046083901078 0.25881299376
          0.58512401581 -0.18639500439 0.18318599463 0.47176000476 -0.12052799761 0.5
          3.6745901108 -0.5 -0.024972600862 3.6450901031 -0.17131699622 -0.19211299717
          3.5628299713 -0.5 -0.19047999382 3.7846400738 -0.3112359941 -0.2879639864
          -1.334980011 -0.066682696342 0.27562999725 -1.3192800283 -0.11339899898 0.070827797055
          -1.5302300453 -0.20296399295 0.1751369983 -1.3444800377 -0.30236798525 0.28137201071
          3.095690012 0.30450299382 0.0079884901643 2.9283499718 0.5 0.14330999553
          2.8604700565 0.28147599101 -0.024887500331 2.9282898903 0.5 -0.19310599566
          0.68295001984 -0.13473699987 0.5 0.47176000476 -0.12052799761 0.5
          0.58512401581 -0.18639500439 0.18318599463 0.75085902214 -0.045475300401 0.28253901005
          -0.014323200099 -0.10396199673 0.093425601721 -0.014450499788 -0.12391400337 -0.11072800308
          0.10427799821 -0.31776800752 -0.01549869962 0.2199189961 -0.15206000209 -0.010414100252
          2.9692099094 -0.18215200305 0.27709600329 3.1743900776 -0.18350000679 0.1536089927
          3.1743099689 -0.022352099419 0.31030499935 2.9353599548 0.054025001824 0.25657498837
          -1.1753100157 0.18597100675 -0.21642799675 -1.0172100067 0.25485399365 -0.020222399384
          -0.96304500103 0.042934101075 -0.20367699862 -1.0750999451 -0.011404699646 0.007108009886
          2.4390499592 -0.057027101517 -0.2462310046 2.4395799637 -0.026134699583 0.038382198662
          2.6777200699 -0.0055014099926 -0.0048864497803 2.6700599194 -0.18108099699 -0.17258299887
          -3.5521500111 0.0046129701659 -0.5 -3.7030899525 -0.27636900544 -0.5
          -3.5893199444 0.032997198403 -0.29434099793 -3.6039199829 -0.1486119926 -0.1880979985
          -1.5214099884 -0.5 0.34752699733 -1.7268799543 -0.26261898875 0.29539200664
          -1.637830019 -0.34564900398 0.5 -1.7145800591 -0.5 0.30908799171
          -3.40102005 0.049610700458 0.26974400878 -3.2899799347 -0.19551900029 0.21153800189
          -3.5796399117 -0.036828301847 0.30965799093 -3.349050045 -0.092123396695 0.5
          2.2094399929 -0.21062499285 -0.5 2.2389800549 -0.33469301462 -0.31423199177
          2.4597499371 -0.30076900125 -0.3059630096 2.3412098885 -0.33859500289 -0.5
          -2.0332100391 0.28143399954 0.34608799219 -2.0084600449 0.5 0.30924999714
          -1.9560199976 0.18910500407 0.17773799598 -1.8209400177 0.5 0.2201499939
          -3.177740097 0.19153399765 0.19352599978 -2.9183399677 -0.016215600073 0.29276099801
          -3.1326100826 -0.026751099154 0.30142500997 -3.012720108 0.29143700004 0.30083501339
          -2.6490800381 0.5 -0.17990100384 -2.8308899403 0.31933999062 -0.31058201194
          -2.6850099564 0.20022499561 -0.22423900664 -2.7123599052 0.5 -0.38375499845
          1.5954600573 -0.5 -0.26120200753 1.5000799894 -0.33221799135 -0.20392900705
          1.5757000446 -0.34572100639 -0.5 1.673140049 -0.32074698806 -0.32187500596
          4.3434801102 -0.13885499537 0.17381000519 4.0886101723 0.063145399094 0.2613709867
          4.0779399872 0.0020779399201 -0.0058176601306 4.2926101685 0.022265100852 0.30176800489
          -3.0793800354 -0.5 0.028451299295 -2.9412100315 -0.31262499094 -0.011466300115
          -2.9510200024 -0.5 -0.15621200204 -2.8101699352 -0.5 0.047830801457
          -0.80325001478 0.5 -0.29217898846 -0.68140697479 0.28639298677 -0.28938999772
          -0.75955200195 0.2530399859 -0.5 -0.92764699459 0.27740699053 -0.26456698775
          -0.80325001478 0.5 -0.29217898846 -0.92764699459 0.27740699053 -0.26456698775
          -0.75955200195 0.2530399859 -0.5 -0.94353401661 0.5 -0.43025898933
          -0.68140697479 0.28639298677 -0.28938999772 -0.89532899857 0.5 -0.11820399761
          -0.92764699459 0.27740699053 -0.26456698775 -0.80325001478 0.5 -0.29217898846
          -2.471460104 0.079349301755 -0.5 -2.4248900414 -0.10110799968 -0.5
          -2.5989000797 -0.16783699393 -0.5 -2.6364200115 -0.0513737984 -0.25086298585
          -2.471460104 0.079349301755 -0.5 -2.3735599518 -0.0037444499321 -0.31686800718
          -2.4248900414 -0.10110799968 -0.5 -2.6364200115 -0.0513737984 -0.25086298585
          -2.3735599518 -0.0037444499321 -0.31686800718 -2.2611498833 -0.21604500711 -0.31563100219
          -2.4248900414 -0.10110799968 -0.5 -2.4208400249 -0.17098300159 -0.17608100176
          -4.3976202011 -0.16255900264 0.25912800431 -4.5181999207 0.028785899282 0.28230598569
          -4.6742100716 -0.19076700509 0.15933300555 -4.5685501099 -0.12892700732 -0.0029087499715
          1.4919899702 -0.5 0.0043379599229 1.7191100121 -0.2926889956 0.013918399811
          1.5000799894 -0.33221799135 -0.20392900705 1.664839983 -0.5 0.021711599082
          3.678839922 -0.28315201402 0.29635599256 3.8753499985 -0.34310999513 0.22761000693
          3.841520071 -0.36154899001 0.5 3.8831400871 -0.19151799381 0.5
          4.1836500168 0.5 0.32843101025 4.1271901131 0.47496300936 0.5
          4.2713398933 0.33074501157 0.5 4.1333699226 0.29578199983 0.28484800458
          0.3679780066 0.042948998511 -0.26218301058 0.27188199759 -0.21608300507 -0.19496400654
          0.52369099855 -0.25701698661 -0.29001700878 0.39225000143 -0.090401999652 -0.5
          -3.8818199635 0.0094203203917 -0.0044903801754 -4.0238199234 -0.033451199532 0.28527000546
          -3.776599884 -0.0024208100513 0.27819898725 -3.8883500099 -0.22696000338 0.22436200082
          1.6999000311 0.18993200362 -0.5 1.51098001 0.18941000104 -0.5
          1.6074999571 0.030789300799 -0.26509699225 1.5757000446 -0.01348510012 -0.5
          -1.2430000305 0.5 0.28215000033 -1.174579978 0.41473001242 0.5
          -1.3727099895 0.30601900816 0.28291600943 -1.3802700043 0.5 0.48661699891
          -4.6261501312 0.17262099683 -0.1935839951 -4.5986399651 0.089573398232 -0.0050773997791
          -4.6675601006 -0.16073800623 -0.17753699422 -4.7847399712 0.018612299114 -0.27819800377
          3.6711499691 0.31469801068 -0.29238000512 3.9085800648 0.5 -0.15719300508
          3.8109300137 0.5 -0.32591500878 4.0157899857 0.23598599434 -0.23627699912
          -4.6791801453 0.16429899633 0.5 -4.6812400818 0.14698000252 0.1767770052
          -4.8773698807 0.1690479964 0.5 -4.8052501678 -0.030253799632 0.27854898572
          4.4995098114 -0.5 0.058421999216 4.4824900627 -0.2778429985 0.28902798891
          4.5181698799 -0.25569599867 -0.00080205698032 4.6710700989 -0.19623799622 0.19057400525
          2.0588099957 0.16667899489 -0.072469100356 2.1815600395 -0.001020470052 -0.32536798716
          2.0216500759 0.22515000403 -0.27024498582 1.9453500509 -0.087545797229 -0.2573390007
          -2.5264899731 0.5 -0.0051567801274 -2.4123599529 0.30793198943 -0.0017855500337
          -2.4157299995 0.5 -0.27320700884 -2.4949100018 0.29038199782 -0.30940899253
          -2.8985300064 0.5 0.19352899492 -3.012720108 0.29143700004 0.30083501339
          -2.7599999905 0.5 0.28317898512 -2.8269600868 0.33847901225 0.099728599191
          1.8512899876 -0.25720700622 0.29749301076 1.6352499723 -0.5 0.19289499521
          1.7191100121 -0.2926889956 0.013918399811 1.6828099489 -0.15067499876 0.17043499649
          1.1263699532 -0.31314399838 0.27022001147 1.0750000477 -0.14948399365 0.12495800108
          1.298789978 -0.15092399716 0.16408100724 1.0831899643 -0.026730500162 0.28337299824
          4.5328998566 0.5 0.15708899498 4.8042798042 0.5 0.31367200613
          4.7387499809 0.5 0.12298899889 4.4985699654 0.29182401299 0.2750479877
          -3.1171200275 -0.32041800022 0.23436300457 -3.2333400249 -0.5 0.24993300438
          -3.1703898907 -0.28369298577 0.029881799594 -3.2899799347 -0.19551900029 0.21153800189
          -2.6367399693 0.26534798741 0.078260503709 -2.5539898872 0.16441999376 -0.075327299535
          -2.8308598995 0.31636199355 -0.103422001 -2.8699100018 0.034952599555 0.013808799908
          -3.2058999538 0.30942299962 0.5 -3.3868999481 0.28687500954 0.25560098886
          -3.3576700687 0.44374600053 0.5 -3.4394900799 0.2320100069 0.5
          -2.0033299923 0.17082899809 -0.16009199619 -2.2036099434 0.092982001603 -0.086743198335
          -2.182790041 0.25494199991 0.029647100717 -1.9655499458 0.017111200839 0.015656199306
          2.4688100815 0.27537798882 -0.28756999969 2.6394400597 0.5 -0.0548616983
          2.6973400116 0.5 -0.29229000211 2.6477799416 0.16645799577 -0.17383100092
          -4.5893697739 -0.027997599915 -0.31035900116 -4.6675601006 -0.16073800623 -0.17753699422
          -4.6261501312 0.17262099683 -0.1935839951 -4.5986399651 0.089573398232 -0.0050773997791
          2.6533699036 -0.5 -0.22465799749 2.5833399296 -0.5 -0.06280399859
          2.4597499371 -0.30076900125 -0.3059630096 2.4389500618 -0.2577829957 -0.080456696451
          -3.4394900799 0.2320100069 0.5 -3.6287798882 0.30937200785 0.33959800005
          -3.5643999577 0.41731798649 0.5 -3.595760107 0.14106500149 0.5
          -2.9220399857 -0.26491099596 0.30408999324 -3.0034298897 -0.12146800011 0.11256500334
          -3.1171200275 -0.32041800022 0.23436300457 -2.9412100315 -0.31262499094 -0.011466300115
          -0.93892097473 -0.041356798261 0.5 -1.1465300322 -0.23797599971 0.5
          -0.95835602283 -0.27399000525 0.5 -1.1246000528 -0.21291700006 0.24169400334
          -1.3444800377 -0.30236798525 0.28137201071 -1.2431999445 -0.5 0.20165300369
          -1.2460000515 -0.40172600746 0.5 -1.1246000528 -0.21291700006 0.24169400334
          3.7148199081 0.013914800249 -0.5 3.9046399593 0.029231099412 -0.28819599748
          3.9944400787 0.12515999377 -0.5 3.9156999588 -0.083973996341 -0.5
          -3.2138299942 0.5 0.12549799681 -3.177740097 0.19153399765 0.19352599978
          -3.3652899265 0.29221200943 0.018539199606 -3.3868999481 0.28687500954 0.25560098886
          1.4914300442 0.0569607988 -0.04182960093 1.4860899448 0.23913800716 -0.2658199966
          1.6074999571 0.030789300799 -0.26509699225 1.7617299557 0.19749200344 -0.18400299549
          -2.6364200115 -0.0513737984 -0.25086298585 -2.5989000797 -0.16783699393 -0.5
          -2.7017800808 -0.045854199678 -0.5 -2.6997199059 -0.29153099656 -0.5
          3.8664000034 0.19483299553 0.16909499466 3.8128800392 0.20643000305 0.5
          3.9662399292 0.2043710053 0.5 3.8265800476 -0.00065459497273 0.32086899877
          -3.2586500645 0.20448499918 -0.21992500126 -3.353219986 0.018101999536 -0.0069937198423
          -3.3652899265 0.29221200943 0.018539199606 -3.119879961 0.056279499084 0.0078261103481
          -3.0562400818 -0.17835299671 0.5 -3.1171200275 -0.32041800022 0.23436300457
          -3.1145401001 -0.33741301298 0.5 -2.9220399857 -0.26491099596 0.30408999324
          1.4243400097 -0.5 0.34605500102 1.3733700514 -0.33255699277 0.11544699967
          1.4919899702 -0.5 0.0043379599229 1.6352499723 -0.5 0.19289499521
          -4.2751197815 0.5 0.02419850044 -4.0642700195 0.5 0.20991900563
          -4.0201997757 0.5 0.0039351000451 -4.2024998665 0.29241999984 0.027058599517
          -0.68823200464 0.30021798611 0.030239600688 -0.89532899857 0.5 -0.11820399761
          -0.61564701796 0.5 -0.067553699017 -0.77020597458 0.5 0.12030699849
          1.0667099953 0.30986699462 -0.00099666800816 1.4356100559 0.30725300312 0.014958400279
          1.2285900116 0.5 1.5277299099e-05 1.2041200399 0.21308499575 -0.18568199873
          1.9433000088 0.5 -0.4768820107 2.0364201069 0.5 -0.27101698518
          2.2679901123 0.5 -0.42606198788 2.1893599033 0.29838100076 -0.5
          -2.8274400234 0.051215600222 -0.3225030005 -2.8483600616 -0.1823129952 -0.18523199856
          -3.0681700706 -0.022411899641 -0.31216698885 -3.0067799091 -0.070524998009 -0.1112980023
          -1.728489995 -0.2819840014 0.029070099816 -1.5899200439 -0.5 -0.14776800573
          -1.5047199726 -0.5 0.018165400252 -1.3964400291 -0.3062709868 0.030771600083
          -0.11357299984 -0.14485199749 -0.33142700791 -0.29398798943 -0.19200000167 -0.2282319963
          -0.014450499788 -0.12391400337 -0.11072800308 -0.18628300726 -0.26750600338 -0.029726099223
          -4.5665698051 0.35982298851 0.5 -4.4165802002 0.22745400667 0.23878499866
          -4.5957798958 0.24809199572 0.32881501317 -4.5152201653 0.17846100032 0.5
          3.2970399857 0.30501198769 -0.2939350009 3.2461500168 0.28882101178 -0.5
          3.4120700359 0.12526200712 -0.5 3.5376200676 0.42240199447 -0.5
          -2.5066099167 0.5 0.23033800721 -2.2191998959 0.31082698703 0.26025301218
          -2.3996500969 0.17564900219 0.17784799635 -2.568860054 0.328433007 0.33221000433
          -0.169242993 0.019168399274 -0.0072063799016 0.12687399983 0.024941600859 0.019101899117
          -0.028405899182 0.038570299745 -0.28863999248 -0.014450499788 -0.12391400337 -0.11072800308
          3.2087500095 0.49311301112 0.5 3.3330900669 0.5 0.31517699361
          3.353579998 0.25871399045 0.31244799495 3.5066199303 0.45685198903 0.5
          0.69335997105 0.13933600485 0.14205299318 0.46630200744 0.046083901078 0.25881299376
          0.58827602863 -0.023083500564 0.03204099834 0.46921399236 0.2665579915 0.056172598153
          -4.1503901482 0.15257999301 -0.18268600106 -3.8989500999 0.24744200706 -0.23554000258
          -4.0346798897 -0.02448659949 -0.29127898812 -3.8818199635 0.0094203203917 -0.0044903801754
          -4.0616898537 0.31015700102 -0.5 -4.2389798164 0.42935600877 -0.5
          -4.2864198685 0.30046600103 -0.30744600296 -4.1763601303 0.12014900148 -0.5
          -3.5974299908 0.015700999647 0.0042460002005 -3.7506599426 -0.28654700518 -0.026961300522
          -3.6202099323 -0.16945900023 0.16224400699 -3.6039199829 -0.1486119926 -0.1880979985
          1.4679900408 -0.23194299638 -0.032342601568 1.2443100214 -0.5 -0.079079799354
          1.2388900518 -0.17473700643 -0.16655999422 1.1665500402 -0.30232200027 0.032807700336
          1.4914300442 0.0569607988 -0.04182960093 1.4356100559 0.30725300312 0.014958400279
          1.2553399801 0.02869570069 -0.044535700232 1.2041200399 0.21308499575 -0.18568199873
          4.814139843 -0.29069000483 0.014058699831 5 -0.14510799944 -0.050927400589
          4.7783799171 -0.058915100992 0.015639599413 4.6962199211 -0.21809899807 -0.17522199452
          4.6908898354 0.5 -0.18460099399 4.8203802109 0.5 -0.047230999917
          4.9951200485 0.5 -0.11868099868 5 0.35498699546 -0.28927499056
          4.1033101082 0.5 -0.16609400511 4.213329792 0.5 0.0031955000013
          4.2976098061 0.5 -0.16453999281 4.2944598198 0.20695400238 -0.17472800612
          0.59722298384 -0.5 0.24278099835 0.44613900781 -0.5 0.42994099855
          0.37961798906 -0.27483201027 0.3045360148 0.53568398952 -0.32191199064 0.5
          -0.16925099492 0.29148900509 0.27573001385 0.057354498655 0.2768329978 0.30196899176
          -0.085543900728 0.5 0.4370740056 -0.10846299678 0.5 0.18573200703
          -3.0582199097 0.31288200617 -0.29153999686 -2.9498999119 0.5 -0.14169600606
          -3.1328499317 0.5 -0.05846099928 -3.2857298851 0.5 -0.18894700706
          0.14069800079 0.16885900497 -0.17604699731 0.3679780066 0.042948998511 -0.26218301058
          0.35873600841 0.27615499496 -0.16060699522 0.22253899276 0.29792100191 -0.30861100554
          3.18708992 -0.32281601429 -0.009787529707 3.1624600887 -0.015569499694 -0.02179059945
          3.1743900776 -0.18350000679 0.1536089927 2.94404006 -0.24824899435 0.048307999969
          -0.40286201239 -0.0046954802237 -0.0054140798748 -0.29398798943 -0.19200000167 -0.2282319963
          -0.42740899324 -0.30482000113 -0.02907329984 -0.18628300726 -0.26750600338 -0.029726099223
          3.495059967 0.19994699955 0.5 3.5617899895 0.20520099998 0.20095099509
          3.3886699677 0.01943529956 0.25713300705 3.6032299995 -0.0550327003 0.29886201024
          -4.3976202011 -0.16255900264 0.25912800431 -4.5130600929 -0.32579600811 0.18804700673
          -4.5685501099 -0.12892700732 -0.0029087499715 -4.6742100716 -0.19076700509 0.15933300555
          -0.91965401173 -0.5 0.069327197969 -0.63264602423 -0.32936599851 0.064718000591
          -0.94314199686 -0.25431698561 0.040656600147 -0.78096401691 -0.28885498643 -0.091540999711
          0.42797398567 -0.5 -0.20191599429 0.39225000143 -0.46847999096 -0.5
          0.52369099855 -0.25701698661 -0.29001700878 0.27028900385 -0.5 -0.35754400492
          -4.500120163 0.30916801095 -0.29975399375 -4.7795901299 0.30410701036 -0.28243198991
          -4.6261501312 0.17262099683 -0.1935839951 -4.5752401352 0.31679400802 -0.5
          3.2946200371 0.5 -0.20856200159 3.1881299019 0.5 -0.42051500082
          3.2970399857 0.30501198769 -0.2939350009 3.3973500729 0.5 -0.34653198719
          -4.8396000862 0.080449603498 -0.5 -4.7795901299 0.30410701036 -0.28243198991
          -4.7847399712 0.018612299114 -0.27819800377 -5 0.09418129921 -0.34129801393
          1.3733700514 -0.33255699277 0.11544699967 1.1665500402 -0.30232200027 0.032807700336
          1.1263699532 -0.31314399838 0.27022001147 1.2694100142 -0.5 0.16097800434
          -1.8121700287 0.32682698965 0.085832998157 -1.730610013 -0.00066968100145 -0.0049977498129
          -1.6647800207 0.24374599755 0.22540199757 -1.7420699596 0.2584669888 -0.11043199897
          1.3350299597 0.5 0.26320800185 1.2936199903 0.35917899013 0.5
          1.4934600592 0.40915301442 0.5 1.4897999763 0.29271999002 0.26752799749
          2.9103798866 -0.24695399404 0.5 2.9692099094 -0.18215200305 0.27709600329
          3.0548899174 -0.0057386700064 0.5 2.8023600578 -0.042083900422 0.5
          4.501060009 0.27867999673 -0.21826599538 4.5822200775 0.29958099127 -0.0073895901442
          4.6908898354 0.5 -0.18460099399 4.7124700546 0.20787400007 -0.21475000679
          -1.3192800283 -0.11339899898 0.070827797055 -1.5096600056 -0.035843800753 0.024828599766
          -1.5302300453 -0.20296399295 0.1751369983 -1.3964400291 -0.3062709868 0.030771600083
          0.77794498205 -0.5 0.24261300266 0.59722298384 -0.5 0.24278099835
          0.68863600492 -0.5 0.092009201646 0.7291790247 -0.29900100827 0.29153800011
          4.4749798775 0.5 -0.22600099444 4.5822200775 0.29958099127 -0.0073895901442
          4.6908898354 0.5 -0.18460099399 4.501060009 0.27867999673 -0.21826599538
          -2.8458900452 0.23675900698 -0.5 -2.8274400234 0.051215600222 -0.3225030005
          -2.7017800808 -0.045854199678 -0.5 -2.9389500618 -0.039363101125 -0.5
          4.4749798775 0.5 -0.22600099444 4.6908898354 0.5 -0.18460099399
          4.5407099724 0.5 -0.4572699964 4.501060009 0.27867999673 -0.21826599538
          -0.70035898685 -0.45424199104 0.5 -0.65928399563 -0.29948800802 0.30083200336
          -0.66166800261 -0.5 0.21156099439 -0.48325100541 -0.5 0.32274898887
          -4.7836899757 -0.0049985698424 -0.0062314402312 -5 0.1004910022 -0.10199099779
          -5 0.28975299001 0.088944099844 -5 -0.004447159823 0.13623799384
          -1.4028300047 -0.15640300512 -0.13328300416 -1.5899200439 -0.5 -0.14776800573
          -1.3964400291 -0.3062709868 0.030771600083 -1.3853499889 -0.5 -0.1261779964
          4.4999699593 -0.30107301474 -0.267922014 4.7140798569 -0.5 -0.1463650018
          4.6661100388 -0.5 -0.39997300506 4.5304999352 -0.5 -0.15178099275
          0.086851902306 0.090062998235 -0.5 -0.01470979955 -0.077135197818 -0.5
          -0.12994900346 0.14103500545 -0.5 -0.028405899182 0.038570299745 -0.28863999248
          1.4243400097 -0.5 0.34605500102 1.2525800467 -0.23895399272 0.5
          1.4891799688 -0.27188199759 0.26980000734 1.4357299805 -0.35067200661 0.5
          -3.3607699871 0.21685799956 -0.5 -3.5893199444 0.032997198403 -0.29434099793
          -3.387419939 -0.020452000201 -0.26496699452 -3.5521500111 0.0046129701659 -0.5
          -2.4500799179 -0.18146699667 0.1914049983 -2.3618400097 -0.32881900668 0.3184300065
          -2.4806699753 -0.5 0.25502499938 -2.6140599251 -0.2892279923 0.31681698561
          -1.5302300453 -0.20296399295 0.1751369983 -1.5496799946 -0.11574400216 0.5
          -1.3444800377 -0.30236798525 0.28137201071 -1.637830019 -0.34564900398 0.5
          -4.2715802193 -0.32873600721 0.20494799316 -4.0987300873 -0.5 0.24074499309
          -4.2342700958 -0.2943969965 -0.036790598184 -4.2580599785 -0.5 -0.032561998814
          1.8100399971 -0.5 -0.073667302728 1.8699899912 -0.30787700415 -0.26772201061
          2.0320599079 -0.29999300838 -0.11793000251 1.8764899969 -0.15924200416 -0.081890702248
          2.4481799603 0.24948500097 0.0013240700355 2.6777200699 -0.0055014099926 -0.0048864497803
          2.4395799637 -0.026134699583 0.038382198662 2.6889400482 0.16072399914 0.18579299748
          -4.439789772 -0.27735000849 -0.054897699505 -4.5578799248 -0.5 0.075488097966
          -4.5130600929 -0.32579600811 0.18804700673 -4.3720297813 -0.5 0.12119200081
          1.5281399488 0.5 -0.39227798581 1.6638499498 0.32388100028 -0.30573499203
          1.7353800535 0.5 -0.37083101273 1.6173299551 0.34555700421 -0.5
          2.0364201069 0.5 -0.27101698518 2.0216500759 0.22515000403 -0.27024498582
          1.9433000088 0.5 -0.4768820107 1.8882399797 0.5 -0.32798698545
          -0.92897802591 0.46998101473 0.5 -1.0002299547 0.5 0.26042699814
          -1.174579978 0.41473001242 0.5 -0.92035800219 0.31782001257 0.33497199416
          1.4243400097 -0.5 0.34605500102 1.2525800467 -0.23895399272 0.5
          1.1263699532 -0.31314399838 0.27022001147 1.4891799688 -0.27188199759 0.26980000734
          1.51098001 0.18941000104 -0.5 1.4860899448 0.23913800716 -0.2658199966
          1.6173299551 0.34555700421 -0.5 1.6638499498 0.32388100028 -0.30573499203
          2.9283499718 0.5 0.14330999553 2.966039896 0.21264900267 0.13400100172
          3.0071001053 0.30889099836 0.30772000551 3.095690012 0.30450299382 0.0079884901643
          3.9538800716 -0.19349299371 -0.21224999428 3.7846400738 -0.3112359941 -0.2879639864
          3.92689991 -0.25916099548 -0.5 3.7685399055 -0.11422099918 -0.34736299515
          3.7846400738 -0.3112359941 -0.2879639864 3.7514400482 -0.26456600428 -0.5
          3.92689991 -0.25916099548 -0.5 3.7685399055 -0.11422099918 -0.34736299515
          0.17147399485 -0.046462800354 -0.28626099229 -0.01470979955 -0.077135197818 -0.5
          -0.028405899182 0.038570299745 -0.28863999248 -0.11357299984 -0.14485199749 -0.33142700791
          -0.11969800293 0.24129599333 0.5 -0.16119599342 0.084271103144 0.32078498602
          0.083770796657 0.16607399285 0.5 0.057354498655 0.2768329978 0.30196899176
          1.5849699974 -0.077601596713 0.5 1.3978899717 -0.017269099131 0.5
          1.4909499884 0.035039100796 0.2443370074 1.6280800104 0.11417599767 0.5
          1.8100399971 -0.5 -0.073667302728 1.7191100121 -0.2926889956 0.013918399811
          1.8764899969 -0.15924200416 -0.081890702248 1.9245300293 -0.27816799283 0.073713801801
          -3.6195299625 0.18837699294 0.1758890003 -3.5974299908 0.015700999647 0.0042460002005
          -3.5796399117 -0.036828301847 0.30965799093 -3.40102005 0.049610700458 0.26974400878
          -0.70620900393 0.037291798741 0.28922000527 -0.62403798103 0.035430200398 0.037675399333
          -0.53887498379 -0.034443799406 0.20534600317 -0.55149698257 0.19303299487 0.18695600331
          -1.3727099895 0.30601900816 0.28291600943 -1.174579978 0.41473001242 0.5
          -1.45697999 0.29096999764 0.5 -1.3802700043 0.5 0.48661699891
          -0.11969800293 0.24129599333 0.5 0.083770796657 0.16607399285 0.5
          0.16596199572 0.5 0.45811799169 0.057354498655 0.2768329978 0.30196899176
          0.42863300443 0.48355901241 -0.5 0.49744200706 0.32136800885 -0.31016400456
          0.70003300905 0.45500999689 -0.5 0.57893800735 0.29019400477 -0.5
          4.6531600952 0.31911000609 0.5 4.6767001152 0.5 0.46980398893
          4.4985699654 0.29182401299 0.2750479877 4.8042798042 0.5 0.31367200613
          4.5822200775 0.29958099127 -0.0073895901442 4.5567698479 0.040265500546 -0.029345599934
          4.7124700546 0.20787400007 -0.21475000679 4.501060009 0.27867999673 -0.21826599538
          -1.728489995 -0.2819840014 0.029070099816 -1.8892199993 -0.5 -0.034159000963
          -1.8138200045 -0.5 0.13895599544 -1.6324599981 -0.5 0.14717400074
          -2.2191998959 0.31082698703 0.26025301218 -2.182790041 0.25494199991 0.029647100717
          -1.9560199976 0.18910500407 0.17773799598 -2.131000042 0.5 0.14166200161
          -0.43139898777 0.5 -0.15948499739 -0.50226300955 0.5 0.14767700434
          -0.47131600976 0.32570299506 -0.023170199245 -0.61564701796 0.5 -0.067553699017
          1.626060009 0.5 0.34106299281 1.4897999763 0.29271999002 0.26752799749
          1.818590045 0.3155849874 0.32314199209 1.7132099867 0.18727500737 0.17964400351
          3.1624600887 -0.015569499694 -0.02179059945 3.1808700562 0.17408800125 -0.17278499901
          3.2905800343 0.095524303615 -0.3324739933 3.4302000999 -0.042014900595 -0.25968700647
          0.68295001984 -0.13473699987 0.5 0.47176000476 -0.12052799761 0.5
          0.46630200744 0.046083901078 0.25881299376 0.5860620141 0.083102703094 0.5
          4.5567698479 0.040265500546 -0.029345599934 4.3127498627 0.19265699387 0.16710400581
          4.5822200775 0.29958099127 -0.0073895901442 4.5015702248 0.045086801052 0.27461698651
          4.3140602112 -0.30338901281 0.040695600212 4.3278198242 -0.19421100616 -0.1541839987
          4.317220211 0.013630899601 -0.032561101019 4.1160001755 -0.25597798824 -0.023964699358
          4.039850235 -0.20272299647 0.21478900313 4.3140602112 -0.30338901281 0.040695600212
          4.3434801102 -0.13885499537 0.17381000519 4.1160001755 -0.25597798824 -0.023964699358
          0.40799000859 -0.5 0.24458500743 0.36774501204 -0.27583301067 0.050296399742
          0.5135999918 -0.5 0.087553098798 0.37961798906 -0.27483201027 0.3045360148
          -0.29486501217 0.23727999628 0.084538802505 -0.47131600976 0.32570299506 -0.023170199245
          -0.40286201239 -0.0046954802237 -0.0054140798748 -0.47644600272 0.21734400094 -0.22011299431
          -1.3560899496 -0.21440200508 0.5 -1.3444800377 -0.30236798525 0.28137201071
          -1.2460000515 -0.40172600746 0.5 -1.1465300322 -0.23797599971 0.5
          4.5822200775 0.29958099127 -0.0073895901442 4.4144301414 0.5 -0.014668799937
          4.501060009 0.27867999673 -0.21826599538 4.4749798775 0.5 -0.22600099444
          -3.2168300152 0.015511999838 -0.16400499642 -2.9755399227 0.12714900076 -0.1661580056
          -3.0067799091 -0.070524998009 -0.1112980023 -3.119879961 0.056279499084 0.0078261103481
          1.5954600573 -0.5 -0.26120200753 1.3746500015 -0.33837598562 -0.5
          1.5757000446 -0.34572100639 -0.5 1.5000799894 -0.33221799135 -0.20392900705
          -2.2987000942 0.5 -0.012699699961 -2.5264899731 0.5 -0.0051567801274
          -2.4123599529 0.30793198943 -0.0017855500337 -2.4157299995 0.5 -0.27320700884
          -4.1164798737 0.5 -0.23297099769 -4.2864198685 0.30046600103 -0.30744600296
          -4.2024998665 0.29241999984 0.027058599517 -4.0830402374 0.30948498845 -0.29728299379
          2.2021598816 0.01178739965 -0.018270699307 2.2194900513 -0.0036427800078 0.3248629868
          2.1986699104 0.16770100594 0.18445199728 2.4395799637 -0.026134699583 0.038382198662
          -1.8413699865 0.28546500206 0.5 -2.0084600449 0.5 0.30924999714
          -2.0332100391 0.28143399954 0.34608799219 -1.8209400177 0.5 0.2201499939
          -1.8656400442 0.28522598743 -0.2969610095 -2.0033299923 0.17082899809 -0.16009199619
          -1.7309900522 0.022700900212 -0.2696749866 -1.9522600174 -0.011583000422 -0.29229301214
          4.1160001755 -0.25597798824 -0.023964699358 3.9580099583 -0.5 0.00037011300446
          4.0863099098 -0.5 0.17567700148 4.1762099266 -0.5 -0.073627002537
          -2.4500799179 -0.18146699667 0.1914049983 -2.1809399128 -0.24249899387 0.24300700426
          -2.1791601181 0.066247500479 0.26825898886 -2.187210083 -0.061865199357 0.039609499276
          -3.177740097 0.19153399765 0.19352599978 -3.353219986 0.018101999536 -0.0069937198423
          -3.40102005 0.049610700458 0.26974400878 -3.1326100826 -0.026751099154 0.30142500997
          3.730230093 0.5 0.19785399735 3.730809927 0.29602000117 0.3136009872
          3.5617899895 0.20520099998 0.20095099509 3.541369915 0.5 0.1197900027
          -2.1682898998 -0.037599701434 -0.23476999998 -1.9544999599 -0.19884000719 -0.16746899486
          -2.1942100525 -0.27436101437 -0.10729199648 -2.187210083 -0.061865199357 0.039609499276
          -0.25742098689 0.29623898864 -0.3442530036 -0.30496299267 0.34233599901 -0.13862299919
          -0.47644600272 0.21734400094 -0.22011299431 -0.43139898777 0.5 -0.15948499739
          -0.17885400355 -0.17817400396 0.19088800251 -0.10500200093 -0.014513599686 0.5
          -0.16119599342 0.084271103144 0.32078498602 0.028599999845 -0.025005400181 0.30730199814
          3.6093900204 0.31306898594 -0.027008600533 3.541369915 0.5 0.1197900027
          3.730230093 0.5 0.19785399735 3.5617899895 0.20520099998 0.20095099509
          -4.411260128 -0.00020594299713 -0.0010824199999 -4.4012899399 0.03873860091 -0.27101901174
          -4.4539299011 -0.1930360049 -0.27674099803 -4.2221798897 -0.17677399516 -0.20671699941
          -4.0346798897 -0.02448659949 -0.29127898812 -3.8436501026 -0.17188200355 -0.5
          -4.0139598846 -0.2127609998 -0.5 -3.9185600281 -0.21505500376 -0.20922599733
          2.2314100266 -0.30056801438 0.0065283500589 2.0873699188 -0.15330499411 0.011435699649
          1.9245300293 -0.27816799283 0.073713801801 2.0320599079 -0.29999300838 -0.11793000251
          3.4346001148 0.010584499687 0.0013051299611 3.1624600887 -0.015569499694 -0.02179059945
          3.2362499237 -0.1912920028 -0.17273800075 3.4302000999 -0.042014900595 -0.25968700647
          -0.93832302094 -0.045258000493 0.24930199981 -0.86464500427 0.18405400217 0.1796399951
          -1.0750999451 -0.011404699646 0.007108009886 -0.81901800632 -0.064964897931 -0.069114297628
          3.190030098 -0.22524799407 -0.5 3.120470047 -0.021967599168 -0.27757799625
          3.2644200325 -0.026787700132 -0.5 3.2362499237 -0.1912920028 -0.17273800075
          -2.7104799747 -0.5 0.29420700669 -2.6965899467 -0.25478899479 0.070601798594
          -2.9220399857 -0.26491099596 0.30408999324 -2.8101699352 -0.5 0.047830801457
          0.71499300003 0.033225100487 -0.28708100319 0.93065899611 -0.030296299607 -0.23989999294
          0.93949502707 0.1572739929 -0.5 0.82831698656 0.016366999596 -0.5
          -0.55561101437 -0.26461198926 0.5 -0.47073799372 -0.22246700525 0.21898700297
          -0.48325100541 -0.5 0.32274898887 -0.29698100686 -0.33138298988 0.28727200627
          2.4688100815 0.27537798882 -0.28756999969 2.6477799416 0.16645799577 -0.17383100092
          2.7815999985 0.20081700385 -0.5 2.4803700447 0.1678159982 -0.5
          -4.4446802139 0.5 0.46802300215 -4.5338001251 0.5 0.29403999448
          -4.6633000374 0.5 0.39759600163 -4.5665698051 0.35982298851 0.5
          1.8512899876 -0.25720700622 0.29749301076 1.9551000595 0.040498699993 0.28340399265
          1.9660799503 -0.216049999 0.5 1.8240200281 -0.074077397585 0.5
          -2.4325098991 0.0032291798852 0.31787699461 -2.4461400509 0.30663898587 0.5
          -2.2944800854 0.10816299915 0.5 -2.6651101112 0.18645100296 0.5
          2.0588099957 0.16667899489 -0.072469100356 2.2155299187 0.29384601116 -0.016047000885
          2.2796599865 0.15909999609 -0.20078100264 2.2021598816 0.01178739965 -0.018270699307
          -1.1475800276 0.23044300079 0.22876000404 -1.0791499615 0.061705000699 0.5
          -0.96254199743 0.19088900089 0.5 -0.93832302094 -0.045258000493 0.24930199981
          -1.6403199434 -0.1704210043 -0.5 -1.6529099941 -0.5 -0.32333600521
          -1.670410037 -0.23073199391 -0.21768200397 -1.5297700167 -0.41840699315 -0.5
          2.4116399288 0.33501198888 0.26824301481 2.2269999981 0.29644799232 0.5
          2.0367600918 0.30077698827 0.30471900105 2.2874000072 0.5 0.36383101344
          2.6293599606 0.5 0.17279799283 2.6540100574 0.30316799879 0.029222900048
          2.3991000652 0.5 0.11198899895 2.4116399288 0.33501198888 0.26824301481
          -4.6633000374 0.5 0.39759600163 -4.6425299644 0.5 0.1688580066
          -4.7674899101 0.33730000257 0.27226099372 -4.5338001251 0.5 0.29403999448
          1.6999000311 0.18993200362 -0.5 1.7617299557 0.19749200344 -0.18400299549
          1.8725500107 0.093445502222 -0.32259699702 1.6074999571 0.030789300799 -0.26509699225
          -1.1438100338 0.013993400149 0.21154500544 -1.29381001 0.12503300607 0.31571400166
          -1.2071299553 -0.056219801307 0.5 -1.334980011 -0.066682696342 0.27562999725
          -1.1465300322 -0.23797599971 0.5 -1.334980011 -0.066682696342 0.27562999725
          -1.3444800377 -0.30236798525 0.28137201071 -1.1246000528 -0.21291700006 0.24169400334
          -1.3444800377 -0.30236798525 0.28137201071 -1.334980011 -0.066682696342 0.27562999725
          -1.5496799946 -0.11574400216 0.5 -1.5302300453 -0.20296399295 0.1751369983
          -1.0791499615 0.061705000699 0.5 -1.241230011 0.18273699284 0.5
          -1.2071299553 -0.056219801307 0.5 -1.29381001 0.12503300607 0.31571400166
          2.2155299187 0.29384601116 -0.016047000885 2.1986699104 0.16770100594 0.18445199728
          2.0588099957 0.16667899489 -0.072469100356 1.9609899521 0.27691298723 0.076514601707
          2.2155299187 0.29384601116 -0.016047000885 2.1986699104 0.16770100594 0.18445199728
          2.2021598816 0.01178739965 -0.018270699307 2.0588099957 0.16667899489 -0.072469100356
          -2.2036099434 0.092982001603 -0.086743198335 -2.1682898998 -0.037599701434 -0.23476999998
          -1.9655499458 0.017111200839 0.015656199306 -2.0033299923 0.17082899809 -0.16009199619
          3.9538800716 -0.19349299371 -0.21224999428 3.8543400764 -0.043197199702 -0.061682298779
          4.0779399872 0.0020779399201 -0.0058176601306 4.1160001755 -0.25597798824 -0.023964699358
          4.4995098114 -0.5 0.058421999216 4.5328397751 -0.5 0.28382301331
          4.4824900627 -0.2778429985 0.28902798891 4.6710700989 -0.19623799622 0.19057400525
          1.6971999407 -0.18535399437 -0.17042499781 1.673140049 -0.32074698806 -0.32187500596
          1.8699899912 -0.30787700415 -0.26772201061 1.7917699814 -0.17960299551 -0.5
          3.8962900639 0.45250400901 -0.5 3.8109300137 0.5 -0.32591500878
          4.0096001625 0.5 -0.34201300144 4.0157899857 0.23598599434 -0.23627699912
          -0.020521700382 0.27518200874 -0.3097819984 -0.18946300447 0.17974199355 -0.1773750037
          -0.30496299267 0.34233599901 -0.13862299919 -0.12392300367 0.5 -0.12977199256
          -1.8168400526 0.14203999937 0.32622399926 -1.9560199976 0.18910500407 0.17773799598
          -1.6999100447 -0.016917800531 0.25771600008 -1.730610013 -0.00066968100145 -0.0049977498129
          -1.6768000126 0.5 -0.27391400933 -1.8110899925 0.48072299361 -0.5
          -1.9338200092 0.5 -0.29581001401 -1.8656400442 0.28522598743 -0.2969610095
          -1.1722400188 -0.078797601163 -0.24050499499 -1.1455899477 -0.027385700494 -0.5
          -0.98949998617 -0.096335403621 -0.5 -0.96304500103 0.042934101075 -0.20367699862
          -5 0.15884299576 0.21330599487 -4.7836899757 -0.0049985698424 -0.0062314402312
          -5 0.28975299001 0.088944099844 -5 -0.004447159823 0.13623799384
          0.086851902306 0.090062998235 -0.5 0.3679780066 0.042948998511 -0.26218301058
          0.20413899422 0.23499399424 -0.5 0.19322299957 -0.078569203615 -0.5
          2.9524600506 -0.22408300638 -0.21185599267 2.6635499001 -0.0075318100862 -0.31723999977
          2.7578799725 -0.10127799958 -0.5 2.8999099731 0.041673701257 -0.29681798816
          -4.0346798897 -0.02448659949 -0.29127898812 -4.0041999817 0.10439799726 -0.5
          -3.8034300804 0.010254199617 -0.24826699495 -3.8989500999 0.24744200706 -0.23554000258
          -4.1456699371 -0.049980100244 -0.5 -4.0139598846 -0.2127609998 -0.5
          -4.2490501404 -0.32240501046 -0.5 -4.0849199295 -0.30423098803 -0.31639400125
          -1.5013799667 0.5 0.29929700494 -1.45697999 0.29096999764 0.5
          -1.3727099895 0.30601900816 0.28291600943 -1.6647800207 0.24374599755 0.22540199757
          -1.5302300453 -0.20296399295 0.1751369983 -1.5232800245 0.099855400622 0.30515301228
          -1.6999100447 -0.016917800531 0.25771600008 -1.5096600056 -0.035843800753 0.024828599766
          -0.39605501294 0.24562799931 -0.5 -0.47644600272 0.21734400094 -0.22011299431
          -0.57590299845 0.34252899885 -0.5 -0.41667899489 0.5 -0.48140498996
          0.098988100886 -0.5 0.3943490088 0.21745100617 -0.25824698806 0.5
          0.25332000852 -0.5 0.31911799312 0.26355600357 -0.45382601023 0.5
          3.8543400764 -0.043197199702 -0.061682298779 3.8664000034 0.19483299553 0.16909499466
          3.7566299438 0.15342700481 -0.14512400329 3.867939949 0.29484701157 -0.023631099612
          -1.8413699865 0.28546500206 0.5 -1.8209400177 0.5 0.2201499939
          -1.7108399868 0.45766401291 0.5 -2.0084600449 0.5 0.30924999714
          0.7291790247 -0.29900100827 0.29153800011 0.76386100054 -0.10622999817 0.089437901974
          0.89871001244 -0.21273000538 0.19672900438 0.75085902214 -0.045475300401 0.28253901005
          -4.765540123 0.29459398985 -0.015708299354 -4.936150074 0.5 -0.080450102687
          -4.8486700058 0.5 0.11407999694 -5 0.28975299001 0.088944099844
          1.7617299557 0.19749200344 -0.18400299549 1.9609899521 0.27691298723 0.076514601707
          1.9183299541 0.30307900906 -0.11740200222 1.9567300081 0.0023706499487 0.0081458101049
          -4.0849199295 -0.30423098803 -0.31639400125 -3.889359951 -0.35665598512 -0.5
          -3.8310699463 -0.5 -0.38916000724 -3.9185600281 -0.21505500376 -0.20922599733
          3.8831400871 -0.19151799381 0.5 4.039850235 -0.20272299647 0.21478900313
          3.8753499985 -0.34310999513 0.22761000693 4.0639600754 -0.30339500308 0.5
          2.8141000271 0.33296000957 0.21601100266 2.6889400482 0.16072399914 0.18579299748
          2.8473100662 0.22374899685 0.5 2.9353599548 0.054025001824 0.25657498837
          3.5255100727 0.5 -0.16535499692 3.803839922 0.5 0.0072177099064
          3.8109300137 0.5 -0.32591500878 3.6711499691 0.31469801068 -0.29238000512
          3.023360014 -0.5 -0.32725200057 2.9524600506 -0.22408300638 -0.21185599267
          3.0969901085 -0.5 -0.1024639979 2.8704299927 -0.5 -0.1951110065
          3.678839922 -0.28315201402 0.29635599256 3.8831400871 -0.19151799381 0.5
          3.841520071 -0.36154899001 0.5 3.7090001106 -0.1736509949 0.5
          1.0735499859 -0.2803800106 -0.2859480083 1.0327399969 -0.5 -0.23253199458
          0.82210099697 -0.27426099777 -0.29057401419 0.96319800615 -0.25574100018 -0.086030602455
          -2.6850099564 0.20022499561 -0.22423900664 -2.8458900452 0.23675900698 -0.5
          -2.6483700275 0.13034400344 -0.5 -2.8308899403 0.31933999062 -0.31058201194
          3.1571199894 0.5 0.16706800461 3.3437099457 0.5 0.098416596651
          3.095690012 0.30450299382 0.0079884901643 3.3688399792 0.28460401297 0.022468499839
          -1.3444800377 -0.30236798525 0.28137201071 -1.5047199726 -0.5 0.018165400252
          -1.5214099884 -0.5 0.34752699733 -1.2431999445 -0.5 0.20165300369
          1.8424299955 0.5 0.20660300553 1.8041000366 0.5 0.48033800721
          2.0662400723 0.5 0.45344299078 1.818590045 0.3155849874 0.32314199209
          -0.46267700195 -0.020818000659 -0.27643701434 -0.62403798103 0.035430200398 0.037675399333
          -0.47644600272 0.21734400094 -0.22011299431 -0.40286201239 -0.0046954802237 -0.0054140798748
          3.8265800476 -0.00065459497273 0.32086899877 3.6032299995 -0.0550327003 0.29886201024
          3.7090001106 -0.1736509949 0.5 3.678839922 -0.28315201402 0.29635599256
          0.96319800615 -0.25574100018 -0.086030602455 1.0404800177 -0.5 0.084503702819
          0.78195297718 -0.29943698645 0.031285099685 0.89871001244 -0.21273000538 0.19672900438
          0.59722298384 -0.5 0.24278099835 0.44613900781 -0.5 0.42994099855
          0.40799000859 -0.5 0.24458500743 0.37961798906 -0.27483201027 0.3045360148
          -0.31256601214 0.5 0.24124599993 -0.29486501217 0.23727999628 0.084538802505
          -0.16925099492 0.29148900509 0.27573001385 -0.10846299678 0.5 0.18573200703
          -0.30116099119 -0.5 -0.18737800419 -0.47420999408 -0.29338499904 -0.29220598936
          -0.29398798943 -0.19200000167 -0.2282319963 -0.42740899324 -0.30482000113 -0.02907329984
          -3.6415400505 0.18903900683 -0.16241000593 -3.8034300804 0.010254199617 -0.24826699495
          -3.7156999111 0.29170098901 -0.33228498697 -3.8989500999 0.24744200706 -0.23554000258
          -3.012720108 0.29143700004 0.30083501339 -3.2776799202 0.5 0.32763698697
          -3.2058999538 0.30942299962 0.5 -3.177740097 0.19153399765 0.19352599978
          -2.3735599518 -0.0037444499321 -0.31686800718 -2.1682898998 -0.037599701434 -0.23476999998
          -2.1895999908 0.28031998873 -0.27681100368 -2.1926898956 0.17790399492 -0.5
          -3.1171200275 -0.32041800022 0.23436300457 -3.0793800354 -0.5 0.028451299295
          -2.962280035 -0.5 0.2204490006 -2.9412100315 -0.31262499094 -0.011466300115
          4.1566100121 -0.01251959987 -0.28246301413 3.9156999588 -0.083973996341 -0.5
          3.9538800716 -0.19349299371 -0.21224999428 4.0967798233 -0.21491999924 -0.5
          4.0595002174 -0.45859000087 -0.5 3.92689991 -0.25916099548 -0.5
          4.0018801689 -0.5 -0.21358500421 3.8477098942 -0.5 -0.38085699081
          -3.0562400818 -0.17835299671 0.5 -3.1307299137 0.1212079972 0.5
          -3.1326100826 -0.026751099154 0.30142500997 -2.8798100948 0.024562800303 0.5
          -1.3414299488 0.2976360023 -0.30167099833 -1.3366099596 0.20833599567 -0.5
          -1.3341200352 0.058667398989 -0.30476099253 -1.2034000158 0.121028997 -0.5
          -3.8034300804 0.010254199617 -0.24826699495 -3.7646200657 -0.015583699569 -0.5
          -3.5893199444 0.032997198403 -0.29434099793 -3.7156999111 0.29170098901 -0.33228498697
          -5 -0.39700898528 0.035171099007 -5 -0.49631300569 0.38468599319
          -5 -0.26007699966 0.21836000681 -4.8312702179 -0.5 0.1501930058
          -2.7622299194 0.5 0.0010923099471 -2.9498999119 0.5 -0.14169600606
          -2.8269600868 0.33847901225 0.099728599191 -2.8308598995 0.31636199355 -0.103422001
          4.0785198212 0.2688550055 0.022481000051 4.0886101723 0.063145399094 0.2613709867
          3.8664000034 0.19483299553 0.16909499466 4.1333699226 0.29578199983 0.28484800458
          -3.7156999111 0.29170098901 -0.33228498697 -3.8034300804 0.010254199617 -0.24826699495
          -3.8300800323 0.22917799652 -0.5 -3.8989500999 0.24744200706 -0.23554000258
          2.8429698944 0.28180000186 -0.27394500375 2.9765999317 0.15742999315 -0.14321500063
          3.0563700199 0.30440598726 -0.29042899609 2.8999099731 0.041673701257 -0.29681798816
          1.3415499926 0.046351000667 -0.2966940105 1.4914300442 0.0569607988 -0.04182960093
          1.2041200399 0.21308499575 -0.18568199873 1.4860899448 0.23913800716 -0.2658199966
          2.8604700565 0.28147599101 -0.024887500331 2.6540100574 0.30316799879 0.029222900048
          2.6777200699 -0.0055014099926 -0.0048864497803 2.6477799416 0.16645799577 -0.17383100092
          4.4995098114 -0.5 0.058421999216 4.7109298706 -0.5 0.037262801081
          4.6710700989 -0.19623799622 0.19057400525 4.5181698799 -0.25569599867 -0.00080205698032
          2.2902700901 0.13368199766 -0.5 2.2796599865 0.15909999609 -0.20078100264
          2.4688100815 0.27537798882 -0.28756999969 2.4803700447 0.1678159982 -0.5
          -4.0987300873 -0.5 0.24074499309 -4.022600174 -0.31765198708 -0.031538199633
          -4.0945601463 -0.28051298857 0.31798601151 -4.1423802376 -0.18350799382 0.11192400008
          -2.8699100018 0.034952599555 0.013808799908 -3.0034298897 -0.12146800011 0.11256500334
          -2.8607199192 0.16806200147 0.1988620013 -2.9183399677 -0.016215600073 0.29276099801
          1.8518699408 -0.5 0.28856000304 2.0752000809 -0.5 0.1838440001
          2.0565500259 -0.31903299689 0.2972239852 1.9245300293 -0.27816799283 0.073713801801
          1.9567300081 0.0023706499487 0.0081458101049 2.0588099957 0.16667899489 -0.072469100356
          1.8725500107 0.093445502222 -0.32259699702 1.9453500509 -0.087545797229 -0.2573390007
          -3.406719923 -0.26567399502 -0.27803298831 -3.5715000629 -0.33374500275 -0.11063300073
          -3.4054200649 -0.24873800576 -0.029902800918 -3.3308799267 -0.5 -0.28216999769
          1.3733700514 -0.33255699277 0.11544699967 1.4679900408 -0.23194299638 -0.032342601568
          1.4919899702 -0.5 0.0043379599229 1.7191100121 -0.2926889956 0.013918399811
          4.6631398201 0.058381199837 -0.5 4.7124700546 0.20787400007 -0.21475000679
          4.4979701042 0.25243699551 -0.5 4.7205901146 0.28053200245 -0.5
          -4.1164798737 0.5 -0.23297099769 -4.0648899078 0.5 -0.42759600282
          -4.0830402374 0.30948498845 -0.29728299379 -3.822799921 0.5 -0.16184200346
          2.2796599865 0.15909999609 -0.20078100264 2.4481799603 0.24948500097 0.0013240700355
          2.6477799416 0.16645799577 -0.17383100092 2.4390499592 -0.057027101517 -0.2462310046
          1.8512899876 -0.25720700622 0.29749301076 1.7191100121 -0.2926889956 0.013918399811
          1.9245300293 -0.27816799283 0.073713801801 1.6828099489 -0.15067499876 0.17043499649
          -1.1455899477 -0.027385700494 -0.5 -1.2810100317 -0.16105599701 -0.5
          -1.1722400188 -0.078797601163 -0.24050499499 -1.1352299452 -0.30921301246 -0.27610599995
          -4.3489499092 -0.10022199899 -0.5 -4.6226601601 -0.13244700432 -0.5
          -4.5744199753 0.044033199549 -0.5 -4.5893697739 -0.027997599915 -0.31035900116
          -4.697619915 0.5 -0.22214700282 -4.6541099548 0.5 -0.42925700545
          -4.7795901299 0.30410701036 -0.28243198991 -4.500120163 0.30916801095 -0.29975399375
          4.4730300903 0.36080300808 0.5 4.6767001152 0.5 0.46980398893
          4.4985699654 0.29182401299 0.2750479877 4.6531600952 0.31911000609 0.5
          -2.8308899403 0.31933999062 -0.31058201194 -2.8308598995 0.31636199355 -0.103422001
          -2.9755399227 0.12714900076 -0.1661580056 -3.0582199097 0.31288200617 -0.29153999686
          1.1710499525 0.11986300349 0.5 1.3978899717 -0.017269099131 0.5
          1.2891700268 0.025188799948 0.31899100542 1.2525800467 -0.23895399272 0.5
          -2.2987000942 0.5 -0.012699699961 -2.5066099167 0.5 0.23033800721
          -2.4123599529 0.30793198943 -0.0017855500337 -2.5264899731 0.5 -0.0051567801274
          -2.6364200115 -0.0513737984 -0.25086298585 -2.8483600616 -0.1823129952 -0.18523199856
          -2.6087799072 -0.18399499357 -0.098889403045 -2.6132099628 -0.29757499695 -0.26779401302
          2.6777200699 -0.0055014099926 -0.0048864497803 2.6700599194 -0.18108099699 -0.17258299887
          2.4389500618 -0.2577829957 -0.080456696451 2.6354598999 -0.29880100489 0.010485099629
          -4.1763601303 0.12014900148 -0.5 -4.1503901482 0.15257999301 -0.18268600106
          -4.0346798897 -0.02448659949 -0.29127898812 -4.4012899399 0.03873860091 -0.27101901174
          -4.2024998665 0.29241999984 0.027058599517 -4.4165802002 0.22745400667 0.23878499866
          -4.1479997635 0.1524810046 0.18773500621 -4.2314600945 0.092286400497 0.01309709996
          -4.794549942 -0.32775598764 0.30355900526 -4.8936700821 -0.25269600749 0.5
          -4.7207899094 -0.18141900003 0.5 -4.7161898613 -0.5 0.43861299753
          -4.1503901482 0.15257999301 -0.18268600106 -4.0346798897 -0.02448659949 -0.29127898812
          -4.0997099876 -0.04042249918 -0.065122202039 -3.8818199635 0.0094203203917 -0.0044903801754
          0.58461797237 0.18660899997 -0.17640599608 0.58827602863 -0.023083500564 0.03204099834
          0.70115399361 -0.13068500161 -0.12672199309 0.48660299182 -0.097960598767 -0.14581799507
          0.27188199759 -0.21608300507 -0.19496400654 0.2626529932 -0.5 -0.065027400851
          0.12759399414 -0.5 -0.23184600472 0.10427799821 -0.31776800752 -0.01549869962
          3.190030098 -0.22524799407 -0.5 3.099050045 -0.07797460258 -0.5
          3.1227400303 -0.30917099118 -0.31313300133 2.9589400291 -0.2156240046 -0.5
          2.6206200123 0.32416799664 0.30228099227 2.8141000271 0.33296000957 0.21601100266
          2.6889400482 0.16072399914 0.18579299748 2.8473100662 0.22374899685 0.5
          -4.1423802376 -0.18350799382 0.11192400008 -4.0987300873 -0.5 0.24074499309
          -4.022600174 -0.31765198708 -0.031538199633 -4.2715802193 -0.32873600721 0.20494799316
          1.818590045 0.3155849874 0.32314199209 1.4897999763 0.29271999002 0.26752799749
          1.688740015 0.32006499171 0.5 1.7132099867 0.18727500737 0.17964400351
          -2.0332100391 0.28143399954 0.34608799219 -1.8209400177 0.5 0.2201499939
          -1.8168400526 0.14203999937 0.32622399926 -1.8413699865 0.28546500206 0.5
          -2.7017800808 -0.045854199678 -0.5 -2.9157800674 -0.27548700571 -0.5
          -2.8483600616 -0.1823129952 -0.18523199856 -2.6997199059 -0.29153099656 -0.5
          1.2891700268 0.025188799948 0.31899100542 1.3807200193 0.21050100029 0.5
          1.4897999763 0.29271999002 0.26752799749 1.4909499884 0.035039100796 0.2443370074
          -2.6651101112 0.18645100296 0.5 -2.8798100948 0.024562800303 0.5
          -2.6128799915 0.13250499964 0.27421799302 -2.8607199192 0.16806200147 0.1988620013
          -0.21006199718 -0.066769301891 -0.5 -0.24800799787 0.0088232699782 -0.29918900132
          -0.46267700195 -0.020818000659 -0.27643701434 -0.36137199402 0.054711200297 -0.5
          3.8334798813 -0.29951399565 -0.035472199321 3.7557299137 -0.14269599319 0.12685400248
          3.6450901031 -0.17131699622 -0.19211299717 3.8543400764 -0.043197199702 -0.061682298779
          3.657200098 0.044741101563 0.5 3.3886699677 0.01943529956 0.25713300705
          3.3009901047 0.050491899252 0.5 3.6032299995 -0.0550327003 0.29886201024
          -4.6633000374 0.5 0.39759600163 -4.5338001251 0.5 0.29403999448
          -4.5957798958 0.24809199572 0.32881501317 -4.5665698051 0.35982298851 0.5
          -0.93913400173 -0.20071199536 -0.20192199945 -0.86342602968 -0.5 -0.2539960146
          -1.0007799864 -0.5 -0.1113319993 -0.78096401691 -0.28885498643 -0.091540999711
          4.2311301231 -0.28602001071 0.30712598562 4.3140602112 -0.30338901281 0.040695600212
          4.296959877 -0.5 0.12259899825 4.4824900627 -0.2778429985 0.28902798891
          0.67495399714 0.10961399972 -0.5 0.71499300003 0.033225100487 -0.28708100319
          0.82974797487 0.27198299766 -0.5 0.82831698656 0.016366999596 -0.5
          -1.6463500261 0.28474900126 -0.30618798733 -1.6768000126 0.5 -0.27391400933
          -1.4210100174 0.5 -0.29471999407 -1.4628200531 0.5 -0.09861010313
          2.6561300755 0.37442401052 -0.5 2.4688100815 0.27537798882 -0.28756999969
          2.8429698944 0.28180000186 -0.27394500375 2.6477799416 0.16645799577 -0.17383100092
          3.3688399792 0.28460401297 0.022468499839 3.2970399857 0.30501198769 -0.2939350009
          3.2171900272 0.5 -0.054951798171 3.1808700562 0.17408800125 -0.17278499901
          0.25995999575 0.5 0.30666300654 0.057354498655 0.2768329978 0.30196899176
          0.25142499804 0.20395800471 0.20601199567 0.086996898055 0.5 0.2632420063
          -1.1475800276 0.23044300079 0.22876000404 -1.3363499641 0.5 0.056991901249
          -1.0912200212 0.5 0.03137230128 -1.2430000305 0.5 0.28215000033
          -3.1402900219 0.086144499481 -0.5 -3.2586500645 0.20448499918 -0.21992500126
          -3.0681700706 -0.022411899641 -0.31216698885 -3.2168300152 0.015511999838 -0.16400499642
          0.21745100617 -0.25824698806 0.5 0.2923809886 -0.092951200902 0.5
          0.37961798906 -0.27483201027 0.3045360148 0.47176000476 -0.12052799761 0.5
          0.78195297718 -0.29943698645 0.031285099685 0.57815998793 -0.31825500727 -0.050177000463
          0.82210099697 -0.27426099777 -0.29057401419 0.70115399361 -0.13068500161 -0.12672199309
          4.1665101051 -0.5 0.35283499956 4.2311301231 -0.28602001071 0.30712598562
          4.0639600754 -0.30339500308 0.5 3.9721999168 -0.5 0.36053299904
          -4.513229847 -0.036582600325 0.5 -4.5459198952 -0.24766799808 0.5
          -4.3976202011 -0.16255900264 0.25912800431 -4.605700016 -0.14155100286 0.34099599719
          0.5135999918 -0.5 0.087553098798 0.36774501204 -0.27583301067 0.050296399742
          0.57815998793 -0.31825500727 -0.050177000463 0.58512401581 -0.18639500439 0.18318599463
          2.2502601147 0.5 -0.1980600059 2.3991000652 0.5 0.11198899895
          2.4748399258 0.5 -0.20795799792 2.4481799603 0.24948500097 0.0013240700355
          0.94293701649 0.27613300085 0.5 0.96667098999 0.22423000634 0.21116599441
          0.8470069766 0.5 0.36908501387 0.69564402103 0.31359699368 0.28978401423
          1.9609899521 0.27691298723 0.076514601707 2.2155299187 0.29384601116 -0.016047000885
          2.1185901165 0.5 0.19517299533 2.0984899998 0.5 -0.030215999112
          -1.7690800428 0.27011099458 -0.5 -1.8110899925 0.48072299361 -0.5
          -1.8656400442 0.28522598743 -0.2969610095 -1.9816099405 0.27960699797 -0.5
          -4.8773698807 0.1690479964 0.5 -4.6812400818 0.14698000252 0.1767770052
          -4.7674899101 0.33730000257 0.27226099372 -4.8052501678 -0.030253799632 0.27854898572
          -3.8539500237 0.5 0.19824199378 -4.0642700195 0.5 0.20991900563
          -3.8746600151 0.5 0.47712299228 -4.1248002052 0.32227998972 0.33130601048
          -0.63264602423 -0.32936599851 0.064718000591 -0.87598198652 -0.27951401472 0.27214699984
          -0.74051898718 -0.13983599842 0.1276730001 -0.65928399563 -0.29948800802 0.30083200336
          2.8429698944 0.28180000186 -0.27394500375 2.8999099731 0.041673701257 -0.29681798816
          3.0563700199 0.30440598726 -0.29042899609 3.0176899433 0.33451101184 -0.5
          2.5818200111 -0.276602 -0.5 2.4597499371 -0.30076900125 -0.3059630096
          2.6179599762 -0.5 -0.39742100239 2.3412098885 -0.33859500289 -0.5
          2.7771201134 0.5 0.34628498554 2.9283499718 0.5 0.14330999553
          3.0071001053 0.30889099836 0.30772000551 2.9862799644 0.5 0.48882699013
          -0.57590299845 0.34252899885 -0.5 -0.63783198595 0.084412999451 -0.319272995
          -0.75955200195 0.2530399859 -0.5 -0.68140697479 0.28639298677 -0.28938999772
          -3.3607699871 0.21685799956 -0.5 -3.5521500111 0.0046129701659 -0.5
          -3.387419939 -0.020452000201 -0.26496699452 -3.3937699795 -0.1384550035 -0.5
          3.5110299587 -0.5 0.32628598809 3.4722599983 -0.22174499929 0.20733100176
          3.678839922 -0.28315201402 0.29635599256 3.4452700615 -0.38378500938 0.5
          -2.6850099564 0.20022499561 -0.22423900664 -2.8308598995 0.31636199355 -0.103422001
          -2.9755399227 0.12714900076 -0.1661580056 -2.8308899403 0.31933999062 -0.31058201194
          2.1815600395 -0.001020470052 -0.32536798716 2.1893599033 0.29838100076 -0.5
          2.0216500759 0.22515000403 -0.27024498582 2.040199995 0.016450500116 -0.5
          -4.2715802193 -0.32873600721 0.20494799316 -4.0987300873 -0.5 0.24074499309
          -4.022600174 -0.31765198708 -0.031538199633 -4.2342700958 -0.2943969965 -0.036790598184
          -4.5957798958 0.24809199572 0.32881501317 -4.7674899101 0.33730000257 0.27226099372
          -4.7492098808 0.3132250011 0.5 -4.6791801453 0.16429899633 0.5
          2.2007598877 0.32477998734 -0.29550099373 2.2155299187 0.29384601116 -0.016047000885
          2.2796599865 0.15909999609 -0.20078100264 2.0588099957 0.16667899489 -0.072469100356
          -0.70035898685 -0.45424199104 0.5 -0.80443400145 -0.5 0.34285399318
          -0.66166800261 -0.5 0.21156099439 -0.65928399563 -0.29948800802 0.30083200336
          -4.2490501404 -0.32240501046 -0.5 -4.0139598846 -0.2127609998 -0.5
          -4.1110301018 -0.5 -0.40642899275 -4.0849199295 -0.30423098803 -0.31639400125
          -0.36137199402 0.054711200297 -0.5 -0.39605501294 0.24562799931 -0.5
          -0.47644600272 0.21734400094 -0.22011299431 -0.55288797617 0.023504899815 -0.5
          -1.4028300047 -0.15640300512 -0.13328300416 -1.3964400291 -0.3062709868 0.030771600083
          -1.1855100393 -0.25224798918 -0.0140108997 -1.3521399498 -0.29692700505 -0.29181501269
          1.1859600544 0.5 0.33510899544 1.1301300526 0.30475699902 0.5
          1.1788899899 0.48774001002 0.5 1.2936199903 0.35917899013 0.5
          -2.4500799179 -0.18146699667 0.1914049983 -2.6128799915 0.13250499964 0.27421799302
          -2.4325098991 0.0032291798852 0.31787699461 -2.7145900726 -0.082542397082 0.279302001
          -1.9649800062 -0.0049698902294 0.29592001438 -2.1011199951 0.16092300415 0.5
          -1.9165099859 0.082864999771 0.5 -2.1403698921 -0.070216402411 0.5
          -1.9338200092 0.5 -0.29581001401 -2.1567900181 0.5 -0.46172600985
          -1.9816099405 0.27960699797 -0.5 -1.8110899925 0.48072299361 -0.5
          -0.62944000959 0.5 0.34010401368 -0.55149698257 0.19303299487 0.18695600331
          -0.38609901071 0.25310799479 0.3300819993 -0.50226300955 0.5 0.14767700434
          -1.8656400442 0.28522598743 -0.2969610095 -2.1895999908 0.28031998873 -0.27681100368
          -2.0428700447 0.13684900105 -0.5 -1.9816099405 0.27960699797 -0.5
          -3.3868999481 0.28687500954 0.25560098886 -3.475399971 0.5 0.31425100565
          -3.5643999577 0.41731798649 0.5 -3.6287798882 0.30937200785 0.33959800005
          1.5281399488 0.5 -0.39227798581 1.5854899883 0.5 -0.19192999601
          1.6638499498 0.32388100028 -0.30573499203 1.4860899448 0.23913800716 -0.2658199966
          -4.1479997635 0.1524810046 0.18773500621 -4.1248002052 0.32227998972 0.33130601048
          -3.8861699104 0.22745600343 0.24729199708 -3.971339941 0.069716103375 0.5
          0.53568398952 -0.32191199064 0.5 0.47176000476 -0.12052799761 0.5
          0.58512401581 -0.18639500439 0.18318599463 0.68295001984 -0.13473699987 0.5
          4.6631398201 0.058381199837 -0.5 4.7696099281 -0.016697799787 -0.29300200939
          4.737279892 -0.20036800206 -0.5 4.5256800652 -0.098457798362 -0.5
          -2.3618400097 -0.32881900668 0.3184300065 -2.4707000256 -0.30024200678 0.5
          -2.4500799179 -0.18146699667 0.1914049983 -2.5157299042 -0.098369702697 0.5
          -2.4500799179 -0.18146699667 0.1914049983 -2.4707000256 -0.30024200678 0.5
          -2.3618400097 -0.32881900668 0.3184300065 -2.6140599251 -0.2892279923 0.31681698561
          -0.38922300935 -0.43621999025 -0.5 -0.46434998512 -0.23358699679 -0.5
          -0.1279810071 -0.26361098886 -0.5 -0.29398798943 -0.19200000167 -0.2282319963
          -4.3720297813 -0.5 0.12119200081 -4.5130600929 -0.32579600811 0.18804700673
          -4.439789772 -0.27735000849 -0.054897699505 -4.2715802193 -0.32873600721 0.20494799316
          4.4730300903 0.36080300808 0.5 4.6531600952 0.31911000609 0.5
          4.4985699654 0.29182401299 0.2750479877 4.625770092 0.13625299931 0.5
          4.1160001755 -0.25597798824 -0.023964699358 4.3140602112 -0.30338901281 0.040695600212
          4.3278198242 -0.19421100616 -0.1541839987 4.1762099266 -0.5 -0.073627002537
          5 -0.40549901128 0.09935849905 4.8106999397 -0.29430899024 0.31109198928
          5 -0.41344600916 0.33176600933 4.8184399605 -0.5 0.27545198798
          -3.3652899265 0.29221200943 0.018539199606 -3.3868999481 0.28687500954 0.25560098886
          -3.5453898907 0.5 0.00052557198796 -3.475399971 0.5 0.31425100565
          -1.2537200451 0.5 -0.48933500051 -1.5764600039 0.36043098569 -0.5
          -1.3414299488 0.2976360023 -0.30167099833 -1.3366099596 0.20833599567 -0.5
          3.4532198906 -0.27570098639 -0.28086999059 3.6450901031 -0.17131699622 -0.19211299717
          3.7846400738 -0.3112359941 -0.2879639864 3.5628299713 -0.5 -0.19047999382
          -0.35255399346 0.016716400161 0.25871700048 -0.40286201239 -0.0046954802237 -0.0054140798748
          -0.29486501217 0.23727999628 0.084538802505 -0.55149698257 0.19303299487 0.18695600331
          3.7777900696 0.29186201096 -0.5 3.6711499691 0.31469801068 -0.29238000512
          4.0157899857 0.23598599434 -0.23627699912 3.9046399593 0.029231099412 -0.28819599748
          -1.2537200451 0.5 -0.48933500051 -1.3414299488 0.2976360023 -0.30167099833
          -1.1828099489 0.5 -0.19919799268 -1.2071399689 0.32934400439 -0.5
          -2.1682898998 -0.037599701434 -0.23476999998 -2.1942100525 -0.27436101437 -0.10729199648
          -2.4208400249 -0.17098300159 -0.17608100176 -2.187210083 -0.061865199357 0.039609499276
          -2.1895999908 0.28031998873 -0.27681100368 -2.2036099434 0.092982001603 -0.086743198335
          -2.182790041 0.25494199991 0.029647100717 -2.0033299923 0.17082899809 -0.16009199619
          1.1168500185 -0.49917200208 -0.5 1.0327399969 -0.5 -0.23253199458
          0.93736201525 -0.5 -0.41163700819 1.0735499859 -0.2803800106 -0.2859480083
          3.9538800716 -0.19349299371 -0.21224999428 3.8334798813 -0.29951399565 -0.035472199321
          3.8543400764 -0.043197199702 -0.061682298779 4.1160001755 -0.25597798824 -0.023964699358
          5 0.087072201073 0.42495000362 4.794479847 -0.0099189598113 0.26575800776
          4.9883899689 -0.15072099864 0.5 5 -0.20979200304 0.28537601233
          4.8905501366 0.13403299451 -0.5 4.7124700546 0.20787400007 -0.21475000679
          4.7205901146 0.28053200245 -0.5 5 0.35498699546 -0.28927499056
          1.4860899448 0.23913800716 -0.2658199966 1.4356100559 0.30725300312 0.014958400279
          1.6601899862 0.29914501309 -0.0094896201044 1.4914300442 0.0569607988 -0.04182960093
          -3.0080699921 0.29238799214 0.028416100889 -3.119879961 0.056279499084 0.0078261103481
          -3.3652899265 0.29221200943 0.018539199606 -3.177740097 0.19153399765 0.19352599978
          -2.332449913 0.5 0.39009299874 -2.2191998959 0.31082698703 0.26025301218
          -2.0084600449 0.5 0.30924999714 -2.131000042 0.5 0.14166200161
          2.5818200111 -0.276602 -0.5 2.7792201042 -0.32771399617 -0.28562399745
          2.6179599762 -0.5 -0.39742100239 2.4597499371 -0.30076900125 -0.3059630096
          0.02034159936 -0.29206499457 -0.27554398775 -0.29398798943 -0.19200000167 -0.2282319963
          -0.11357299984 -0.14485199749 -0.33142700791 -0.18628300726 -0.26750600338 -0.029726099223
          -4.5181999207 0.028785899282 0.28230598569 -4.7226400375 0.0055706598796 0.5
          -4.8052501678 -0.030253799632 0.27854898572 -4.6791801453 0.16429899633 0.5
          4.1566100121 -0.27463600039 -0.28568801284 4.2686200142 -0.36589500308 -0.5
          4.3579602242 -0.5 -0.20988300443 4.4999699593 -0.30107301474 -0.267922014
          0.2306600064 0.5 -0.31376600266 0.27108699083 0.5 -0.08351060003
          0.42726400495 0.5 -0.227602005 0.35873600841 0.27615499496 -0.16060699522
          0.42863300443 0.48355901241 -0.5 0.49744200706 0.32136800885 -0.31016400456
          0.57893800735 0.29019400477 -0.5 0.38934001327 0.21350599825 -0.5
          -1.728489995 -0.2819840014 0.029070099816 -1.7268799543 -0.26261898875 0.29539200664
          -1.6324599981 -0.5 0.14717400074 -1.8138200045 -0.5 0.13895599544
          -4.0987300873 -0.5 0.24074499309 -4.2715802193 -0.32873600721 0.20494799316
          -4.1482901573 -0.5 0.45363500714 -4.3996100426 -0.5 0.31058299541
          3.353579998 0.25871399045 0.31244799495 3.3886699677 0.01943529956 0.25713300705
          3.495059967 0.19994699955 0.5 3.5617899895 0.20520099998 0.20095099509
          0.057354498655 0.2768329978 0.30196899176 0.086996898055 0.5 0.2632420063
          -0.085543900728 0.5 0.4370740056 -0.10846299678 0.5 0.18573200703
          1.5954600573 -0.5 -0.26120200753 1.5757000446 -0.34572100639 -0.5
          1.8518699408 -0.5 -0.39846301079 1.673140049 -0.32074698806 -0.32187500596
          2.7771201134 0.5 0.34628498554 2.6293599606 0.5 0.17279799283
          2.8141000271 0.33296000957 0.21601100266 2.9283499718 0.5 0.14330999553
          -3.1326100826 -0.026751099154 0.30142500997 -3.2899799347 -0.19551900029 0.21153800189
          -3.1171200275 -0.32041800022 0.23436300457 -3.0034298897 -0.12146800011 0.11256500334
          2.2796599865 0.15909999609 -0.20078100264 2.4481799603 0.24948500097 0.0013240700355
          2.4390499592 -0.057027101517 -0.2462310046 2.4395799637 -0.026134699583 0.038382198662
          -2.4325098991 0.0032291798852 0.31787699461 -2.3996500969 0.17564900219 0.17784799635
          -2.6128799915 0.13250499964 0.27421799302 -2.4091000557 0.010666499846 0.010404500179
          0.2199189961 -0.15206000209 -0.010414100252 0.15296399593 -0.18104599416 0.18370200694
          0.36774501204 -0.27583301067 0.050296399742 0.10427799821 -0.31776800752 -0.01549869962
          4.2942700386 0.099316298962 -0.5 4.4943199158 0.06769169867 -0.29010298848
          4.4979701042 0.25243699551 -0.5 4.5256800652 -0.098457798362 -0.5
          2.0565500259 -0.31903299689 0.2972239852 2.2103800774 -0.5 0.38068500161
          2.2452199459 -0.36571800709 0.5 2.2669200897 -0.32125800848 0.30331799388
          -2.8699100018 0.034952599555 0.013808799908 -3.0034298897 -0.12146800011 0.11256500334
          -2.8483600616 -0.1823129952 -0.18523199856 -3.0067799091 -0.070524998009 -0.1112980023
          -4.6261501312 0.17262099683 -0.1935839951 -4.7836899757 -0.0049985698424 -0.0062314402312
          -4.765540123 0.29459398985 -0.015708299354 -4.5986399651 0.089573398232 -0.0050773997791
          1.3350299597 0.5 0.26320800185 1.4356100559 0.30725300312 0.014958400279
          1.4897999763 0.29271999002 0.26752799749 1.5800199509 0.5 0.11975900084
          -4.0238199234 -0.033451199532 0.28527000546 -4.2407898903 -0.014909300022 0.29183000326
          -4.1556100845 0.12476799637 0.5 -4.0954899788 -0.1243320033 0.5
          4.2311301231 -0.28602001071 0.30712598562 4.2901201248 -0.17937499285 0.5
          4.3113298416 -0.5 0.48262700438 4.0639600754 -0.30339500308 0.5
          4.7622699738 -0.21942800283 0.5 4.6142997742 -0.33187198639 0.5
          4.8925499916 -0.35197499394 0.5 4.742000103 -0.5 0.47397199273
          -2.6850099564 0.20022499561 -0.22423900664 -2.6364200115 -0.0513737984 -0.25086298585
          -2.6483700275 0.13034400344 -0.5 -2.8274400234 0.051215600222 -0.3225030005
          1.4914300442 0.0569607988 -0.04182960093 1.7132099867 0.18727500737 0.17964400351
          1.6601899862 0.29914501309 -0.0094896201044 1.7197300196 -0.0059337001294 -0.015229499899
          -2.9157800674 -0.27548700571 -0.5 -2.9800601006 -0.5 -0.40619799495
          -3.0114998817 -0.30267500877 -0.29305499792 -2.8245999813 -0.5 -0.29598200321
          2.9353599548 0.054025001824 0.25657498837 2.7103700638 -0.17533199489 0.17696000636
          2.6777200699 -0.0055014099926 -0.0048864497803 2.6889400482 0.16072399914 0.18579299748
          -0.29398798943 -0.19200000167 -0.2282319963 -0.40286201239 -0.0046954802237 -0.0054140798748
          -0.6270070076 -0.18018999696 -0.18880400062 -0.46267700195 -0.020818000659 -0.27643701434
          2.7792201042 -0.32771399617 -0.28562399745 2.809910059 -0.30858701468 -0.088228099048
          2.750590086 -0.5 -0.077522300184 2.6533699036 -0.5 -0.22465799749
          -4.2751197815 0.5 0.02419850044 -4.2024998665 0.29241999984 0.027058599517
          -4.261590004 0.5 0.28367200494 -4.0642700195 0.5 0.20991900563
          -0.42740899324 -0.30482000113 -0.02907329984 -0.47420999408 -0.29338499904 -0.29220598936
          -0.29398798943 -0.19200000167 -0.2282319963 -0.6270070076 -0.18018999696 -0.18880400062
          1.7132099867 0.18727500737 0.17964400351 1.71875 0.012455300428 0.32105600834
          1.818590045 0.3155849874 0.32314199209 1.9551000595 0.040498699993 0.28340399265
          -1.670410037 -0.23073199391 -0.21768200397 -1.5297700167 -0.41840699315 -0.5
          -1.3521399498 -0.29692700505 -0.29181501269 -1.4115899801 -0.27296701074 -0.5
          3.6450901031 -0.17131699622 -0.19211299717 3.7685399055 -0.11422099918 -0.34736299515
          3.9538800716 -0.19349299371 -0.21224999428 3.8543400764 -0.043197199702 -0.061682298779
          -1.5214099884 -0.5 0.34752699733 -1.5302300453 -0.20296399295 0.1751369983
          -1.7268799543 -0.26261898875 0.29539200664 -1.6324599981 -0.5 0.14717400074
          0.17147399485 -0.046462800354 -0.28626099229 -0.028405899182 0.038570299745 -0.28863999248
          -0.014450499788 -0.12391400337 -0.11072800308 -0.11357299984 -0.14485199749 -0.33142700791
          -4.500120163 0.30916801095 -0.29975399375 -4.5893697739 -0.027997599915 -0.31035900116
          -4.6261501312 0.17262099683 -0.1935839951 -4.4012899399 0.03873860091 -0.27101901174
          2.6809399128 0.37128800154 0.5 2.7771201134 0.5 0.34628498554
          2.6206200123 0.32416799664 0.30228099227 2.8141000271 0.33296000957 0.21601100266
          1.6828099489 -0.15067499876 0.17043499649 1.4909499884 0.035039100796 0.2443370074
          1.7132099867 0.18727500737 0.17964400351 1.71875 0.012455300428 0.32105600834
          -0.93830001354 0.5 0.10322599858 -1.0172100067 0.25485399365 -0.020222399384
          -1.1475800276 0.23044300079 0.22876000404 -0.92035800219 0.31782001257 0.33497199416
          -0.43139898777 0.5 -0.15948499739 -0.68140697479 0.28639298677 -0.28938999772
          -0.47644600272 0.21734400094 -0.22011299431 -0.60728102922 0.5 -0.3106789887
          -0.43139898777 0.5 -0.15948499739 -0.61564701796 0.5 -0.067553699017
          -0.47644600272 0.21734400094 -0.22011299431 -0.68140697479 0.28639298677 -0.28938999772
          -0.29334101081 0.37132000923 0.5 -0.54225701094 0.182366997 0.5
          -0.38609901071 0.25310799479 0.3300819993 -0.46542999148 0.5 0.387439996
          -2.1567900181 0.5 -0.46172600985 -2.5055100918 0.5 -0.47431001067
          -2.4157299995 0.5 -0.27320700884 -2.3761999607 0.32358598709 -0.5
          -1.2951300144 0.045372098684 -0.065485596657 -1.4892100096 0.17613700032 -0.19808200002
          -1.5096600056 -0.035843800753 0.024828599766 -1.4028300047 -0.15640300512 -0.13328300416
          0.2306600064 0.5 -0.31376600266 0.22253899276 0.29792100191 -0.30861100554
          0.42726400495 0.5 -0.227602005 0.49744200706 0.32136800885 -0.31016400456
          -3.3607699871 0.21685799956 -0.5 -3.4697299004 0.28407201171 -0.298379004
          -3.5893199444 0.032997198403 -0.29434099793 -3.5521500111 0.0046129701659 -0.5
          2.5758199692 0.075252600014 0.5 2.3315200806 0.075631901622 0.5
          2.4428100586 0.10961800069 0.26388600469 2.4715499878 0.29645401239 0.5
          -3.8883500099 -0.22696000338 0.22436200082 -3.7200200558 -0.5 0.14442199469
          -3.7068300247 -0.31349000335 0.29142400622 -3.7506599426 -0.28654700518 -0.026961300522
          3.4120700359 0.12526200712 -0.5 3.4302000999 -0.042014900595 -0.25968700647
          3.6228199005 0.064896397293 -0.30187800527 3.4951400757 -0.11613500118 -0.5
          -0.012120299973 -0.32062399387 0.28174200654 -0.29698100686 -0.33138298988 0.28727200627
          -0.16431899369 -0.5 0.31346601248 -0.035155199468 -0.5 0.074470199645
          1.6828099489 -0.15067499876 0.17043499649 1.7191100121 -0.2926889956 0.013918399811
          1.8764899969 -0.15924200416 -0.081890702248 1.7197300196 -0.0059337001294 -0.015229499899
          -0.87598198652 -0.27951401472 0.27214699984 -1.1115700006 -0.5 0.061790000647
          -0.99834597111 -0.5 0.33863401413 -0.91965401173 -0.5 0.069327197969
          -1.7690800428 0.27011099458 -0.5 -1.9816099405 0.27960699797 -0.5
          -1.8656400442 0.28522598743 -0.2969610095 -1.8528900146 0.074574902654 -0.5
          3.6361598969 -0.5 0.14722600579 3.6328399181 -0.30484598875 0.056098300964
          3.4999299049 -0.5 -8.444820196e-06 3.6745901108 -0.5 -0.024972600862
          1.2525800467 -0.23895399272 0.5 1.4243400097 -0.5 0.34605500102
          1.1263699532 -0.31314399838 0.27022001147 1.2566000223 -0.4687319994 0.5
          0.7291790247 -0.29900100827 0.29153800011 0.89871001244 -0.21273000538 0.19672900438
          0.76386100054 -0.10622999817 0.089437901974 0.78195297718 -0.29943698645 0.031285099685
          -1.8209400177 0.5 0.2201499939 -2.0516901016 0.5 -0.021020600572
          -1.8121700287 0.32682698965 0.085832998157 -1.8758599758 0.5 -0.063933096826
          0.27188199759 -0.21608300507 -0.19496400654 0.17147399485 -0.046462800354 -0.28626099229
          0.02034159936 -0.29206499457 -0.27554398775 0.084536299109 -0.24571800232 -0.5
          0.6344910264 0.5 0.40687701106 0.58821898699 0.5 0.18288999796
          0.41966900229 0.5 0.38582900167 0.45764601231 0.28433001041 0.29305499792
          0.27188199759 -0.21608300507 -0.19496400654 0.10427799821 -0.31776800752 -0.01549869962
          0.36774501204 -0.27583301067 0.050296399742 0.2626529932 -0.5 -0.065027400851
          4.7783799171 -0.058915100992 0.015639599413 4.8058700562 0.17079499364 -0.0053127701394
          5 0.040265500546 -0.029345599934 5 0.029062800109 0.15694400668
          4.8058700562 0.17079499364 -0.0053127701394 5 0.29265201092 0.032442100346
          5 0.040265500546 -0.029345599934 5 0.029062800109 0.15694400668
          0.71499300003 0.033225100487 -0.28708100319 0.58461797237 0.18660899997 -0.17640599608
          0.73280501366 0.2939440012 -0.30173701048 0.89332699776 0.23076300323 -0.16234900057
          -1.5251499414 -0.076651901007 -0.31482899189 -1.6108299494 0.078509502113 -0.5
          -1.3918299675 -0.029553499073 -0.5 -1.3341200352 0.058667398989 -0.30476099253
          -1.6529099941 -0.5 -0.32333600521 -1.4707000256 -0.5 -0.29291000962
          -1.670410037 -0.23073199391 -0.21768200397 -1.5297700167 -0.41840699315 -0.5
          -0.012120299973 -0.32062399387 0.28174200654 -0.014323200099 -0.10396199673 0.093425601721
          0.15296399593 -0.18104599416 0.18370200694 0.028599999845 -0.025005400181 0.30730199814
          1.4673299789 -0.16130299866 -0.30513200164 1.3746500015 -0.33837598562 -0.5
          1.5757000446 -0.34572100639 -0.5 1.5757000446 -0.01348510012 -0.5
          -2.6087799072 -0.18399499357 -0.098889403045 -2.4605801105 -0.31329700351 0.0017525800504
          -2.6965899467 -0.25478899479 0.070601798594 -2.4500799179 -0.18146699667 0.1914049983
          2.4458899498 -0.25059598684 0.23923400044 2.2194900513 -0.0036427800078 0.3248629868
          2.4428100586 0.10961800069 0.26388600469 2.3842000961 -0.1629229933 0.5
          1.4919899702 -0.5 0.0043379599229 1.2443100214 -0.5 -0.079079799354
          1.5000799894 -0.33221799135 -0.20392900705 1.4679900408 -0.23194299638 -0.032342601568
          3.2905800343 0.095524303615 -0.3324739933 3.2461500168 0.28882101178 -0.5
          3.2644200325 -0.026787700132 -0.5 3.4120700359 0.12526200712 -0.5
          -3.2586500645 0.20448499918 -0.21992500126 -3.0582199097 0.31288200617 -0.29153999686
          -3.1328499317 0.5 -0.05846099928 -3.2857298851 0.5 -0.18894700706
          3.1808700562 0.17408800125 -0.17278499901 3.0563700199 0.30440598726 -0.29042899609
          2.9765999317 0.15742999315 -0.14321500063 3.120470047 -0.021967599168 -0.27757799625
          -3.776599884 -0.0024208100513 0.27819898725 -3.7759699821 0.12645199895 0.5
          -3.6482999325 -0.031938001513 0.5 -3.8706200123 -0.17432299256 0.5
          4.1762099266 -0.5 -0.073627002537 4.3140602112 -0.30338901281 0.040695600212
          4.3579602242 -0.5 -0.20988300443 4.296959877 -0.5 0.12259899825
          -2.9755399227 0.12714900076 -0.1661580056 -3.0080699921 0.29238799214 0.028416100889
          -3.119879961 0.056279499084 0.0078261103481 -3.2586500645 0.20448499918 -0.21992500126
          0.65357899666 -0.5 0.40985101461 0.59722298384 -0.5 0.24278099835
          0.7291790247 -0.29900100827 0.29153800011 0.53568398952 -0.32191199064 0.5
          -3.3652899265 0.29221200943 0.018539199606 -3.40102005 0.049610700458 0.26974400878
          -3.6195299625 0.18837699294 0.1758890003 -3.3868999481 0.28687500954 0.25560098886
          -0.91965401173 -0.5 0.069327197969 -0.78096401691 -0.28885498643 -0.091540999711
          -0.94314199686 -0.25431698561 0.040656600147 -0.79164099693 -0.5 -0.074961297214
          2.2796599865 0.15909999609 -0.20078100264 2.4395799637 -0.026134699583 0.038382198662
          2.4390499592 -0.057027101517 -0.2462310046 2.2021598816 0.01178739965 -0.018270699307
          1.8424299955 0.5 0.20660300553 1.9609899521 0.27691298723 0.076514601707
          2.0984899998 0.5 -0.030215999112 1.8845000267 0.5 -0.10376700014
          1.7531599998 0.5 0.036465600133 1.9609899521 0.27691298723 0.076514601707
          1.8424299955 0.5 0.20660300553 1.8845000267 0.5 -0.10376700014
          1.3807200193 0.21050100029 0.5 1.6280800104 0.11417599767 0.5
          1.4897999763 0.29271999002 0.26752799749 1.4909499884 0.035039100796 0.2443370074
          -0.29486501217 0.23727999628 0.084538802505 -0.28813400865 0.5 -0.011587300338
          -0.10846299678 0.5 0.18573200703 -0.31256601214 0.5 0.24124599993
          -3.822799921 0.5 -0.16184200346 -3.7465999126 0.5 0.026138799265
          -3.7612600327 0.27116200328 0.015408799984 -4.0201997757 0.5 0.0039351000451
          0.82831698656 0.016366999596 -0.5 0.89200401306 -0.15874500573 -0.5
          0.71499300003 0.033225100487 -0.28708100319 0.93065899611 -0.030296299607 -0.23989999294
          -3.5893199444 0.032997198403 -0.29434099793 -3.7646200657 -0.015583699569 -0.5
          -3.6169199944 0.2079769969 -0.5 -3.7156999111 0.29170098901 -0.33228498697
          1.664839983 -0.5 0.021711599082 1.5954600573 -0.5 -0.26120200753
          1.8100399971 -0.5 -0.073667302728 1.7191100121 -0.2926889956 0.013918399811
          -2.3735599518 -0.0037444499321 -0.31686800718 -2.4208400249 -0.17098300159 -0.17608100176
          -2.6364200115 -0.0513737984 -0.25086298585 -2.4091000557 0.010666499846 0.010404500179
          1.3350299597 0.5 0.26320800185 1.1859600544 0.5 0.33510899544
          1.1788899899 0.48774001002 0.5 1.2936199903 0.35917899013 0.5
          4.1566100121 -0.27463600039 -0.28568801284 4.1566100121 -0.01251959987 -0.28246301413
          4.3479599953 -0.069560296834 -0.31158301234 4.3278198242 -0.19421100616 -0.1541839987
          -5 -0.49631300569 0.38468599319 -4.794549942 -0.32775598764 0.30355900526
          -5 -0.26007699966 0.21836000681 -4.8312702179 -0.5 0.1501930058
          -1.0519599915 0.24375100434 -0.5 -0.94353401661 0.5 -0.43025898933
          -0.92764699459 0.27740699053 -0.26456698775 -1.0104800463 0.5 -0.2601659894
          3.4120700359 0.12526200712 -0.5 3.6228199005 0.064896397293 -0.30187800527
          3.6057898998 0.18472599983 -0.5 3.4951400757 -0.11613500118 -0.5
          4.7025499344 0.19734199345 0.20103999972 4.6531600952 0.31911000609 0.5
          4.8042798042 0.5 0.31367200613 4.8295898438 0.25321400166 0.5
          -4.2342700958 -0.2943969965 -0.036790598184 -4.2746400833 -0.5 -0.25492700934
          -4.4352798462 -0.5 -0.094545200467 -4.2580599785 -0.5 -0.032561998814
          -1.6324599981 -0.5 0.14717400074 -1.7268799543 -0.26261898875 0.29539200664
          -1.7145800591 -0.5 0.30908799171 -1.8138200045 -0.5 0.13895599544
          -0.78096401691 -0.28885498643 -0.091540999711 -0.77074998617 -0.30250000954 -0.3132340014
          -0.79164099693 -0.5 -0.074961297214 -0.59884798527 -0.5 -0.081100203097
          1.8240200281 -0.074077397585 0.5 1.9551000595 0.040498699993 0.28340399265
          2.0954899788 -0.062455501407 0.5 1.9254900217 0.21205799282 0.5
          3.7557299137 -0.14269599319 0.12685400248 3.6606800556 0.057222399861 0.047008000314
          3.6450901031 -0.17131699622 -0.19211299717 3.8543400764 -0.043197199702 -0.061682298779
          -2.5264899731 0.5 -0.0051567801274 -2.6367399693 0.26534798741 0.078260503709
          -2.4123599529 0.30793198943 -0.0017855500337 -2.5539898872 0.16441999376 -0.075327299535
          -2.461810112 -0.5 -0.23160800338 -2.4805099964 -0.5 -0.46317800879
          -2.4834799767 -0.27802801132 -0.5 -2.6132099628 -0.29757499695 -0.26779401302
          -0.33964401484 -0.12936100364 0.5 -0.17885400355 -0.17817400396 0.19088800251
          -0.35255399346 0.016716400161 0.25871700048 -0.29698100686 -0.33138298988 0.28727200627
          1.2676099539 0.18327300251 0.17430500686 1.0831899643 -0.026730500162 0.28337299824
          1.2891700268 0.025188799948 0.31899100542 1.298789978 -0.15092399716 0.16408100724
          -3.1703898907 -0.28369298577 0.029881799594 -3.2899799347 -0.19551900029 0.21153800189
          -3.3001599312 -0.5 -0.014418800361 -3.4054200649 -0.24873800576 -0.029902800918
          2.6973400116 0.5 -0.29229000211 2.6394400597 0.5 -0.0548616983
          2.9282898903 0.5 -0.19310599566 2.8429698944 0.28180000186 -0.27394500375
          1.2955499887 -0.5 -0.41003099084 1.0327399969 -0.5 -0.23253199458
          1.1168500185 -0.49917200208 -0.5 1.0735499859 -0.2803800106 -0.2859480083
          1.7191100121 -0.2926889956 0.013918399811 1.4679900408 -0.23194299638 -0.032342601568
          1.5000799894 -0.33221799135 -0.20392900705 1.6971999407 -0.18535399437 -0.17042499781
          -4.1763601303 0.12014900148 -0.5 -4.2864198685 0.30046600103 -0.30744600296
          -4.4012899399 0.03873860091 -0.27101901174 -4.3405499458 0.17424100637 -0.5
          -1.9215400219 -0.19377499819 0.17684599757 -2.1809399128 -0.24249899387 0.24300700426
          -2.0053899288 -0.31090599298 0.32138600945 -2.0675001144 -0.32273799181 0.069159403443
          -1.670410037 -0.23073199391 -0.21768200397 -1.9544999599 -0.19884000719 -0.16746899486
          -1.728489995 -0.2819840014 0.029070099816 -1.8430000544 -0.33087998629 -0.29164901376
          1.0351999998 0.5 -0.23184999824 1.0667099953 0.30986699462 -0.00099666800816
          1.2041200399 0.21308499575 -0.18568199873 0.89332699776 0.23076300323 -0.16234900057
          -4.4328398705 0.5 0.16251300275 -4.6425299644 0.5 0.1688580066
          -4.5506501198 0.30194398761 0.066922001541 -4.514550209 0.5 -0.045017201453
          -2.1682898998 -0.037599701434 -0.23476999998 -2.2438600063 -0.050747901201 -0.5
          -2.0386500359 -0.018439799547 -0.5 -2.1926898956 0.17790399492 -0.5
          2.3315200806 0.075631901622 0.5 2.1093399525 0.13601699471 0.5
          2.2194900513 -0.0036427800078 0.3248629868 2.2269999981 0.29644799232 0.5
          2.6533699036 -0.5 -0.22465799749 2.8704299927 -0.5 -0.1951110065
          2.7792201042 -0.32771399617 -0.28562399745 2.6179599762 -0.5 -0.39742100239
          -4.1456699371 -0.049980100244 -0.5 -4.0041999817 0.10439799726 -0.5
          -4.0139598846 -0.2127609998 -0.5 -4.0346798897 -0.02448659949 -0.29127898812
          4.3434801102 -0.13885499537 0.17381000519 4.3278198242 -0.19421100616 -0.1541839987
          4.317220211 0.013630899601 -0.032561101019 4.3140602112 -0.30338901281 0.040695600212
          4.0785198212 0.2688550055 0.022481000051 4.0127902031 0.5 -0.00039253599243
          4.1033101082 0.5 -0.16609400511 4.213329792 0.5 0.0031955000013
          3.841520071 -0.36154899001 0.5 3.8831400871 -0.19151799381 0.5
          3.8753499985 -0.34310999513 0.22761000693 4.0639600754 -0.30339500308 0.5
          0.098988100886 -0.5 0.3943490088 0.21745100617 -0.25824698806 0.5
          -0.012120299973 -0.32062399387 0.28174200654 0.25332000852 -0.5 0.31911799312
          -4.2342700958 -0.2943969965 -0.036790598184 -4.0997099876 -0.04042249918 -0.065122202039
          -4.1423802376 -0.18350799382 0.11192400008 -4.411260128 -0.00020594299713 -0.0010824199999
          1.6999000311 0.18993200362 -0.5 1.8725500107 0.093445502222 -0.32259699702
          1.785670042 0.036040998995 -0.5 1.6074999571 0.030789300799 -0.26509699225
          1.8725500107 0.093445502222 -0.32259699702 1.7197300196 -0.0059337001294 -0.015229499899
          1.6971999407 -0.18535399437 -0.17042499781 1.6074999571 0.030789300799 -0.26509699225
          -3.4066801071 0.46902000904 -0.5 -3.2381598949 0.5 -0.3880290091
          -3.4697299004 0.28407201171 -0.298379004 -3.2857298851 0.5 -0.18894700706
          2.0320599079 -0.29999300838 -0.11793000251 1.9453500509 -0.087545797229 -0.2573390007
          2.042320013 -0.28687000275 -0.5 2.2014501095 -0.17346900702 -0.18166600168
          -2.2661499977 -0.26958799362 0.5 -2.1403698921 -0.070216402411 0.5
          -2.3285899162 -0.077071398497 0.5 -2.1809399128 -0.24249899387 0.24300700426
          -2.0053899288 -0.31090599298 0.32138600945 -2.1809399128 -0.24249899387 0.24300700426
          -1.9215400219 -0.19377499819 0.17684599757 -1.9649800062 -0.0049698902294 0.29592001438
          -3.0716400146 0.45964699984 -0.5 -3.0582199097 0.31288200617 -0.29153999686
          -3.1714200974 0.28492799401 -0.5 -3.2381598949 0.5 -0.3880290091
          -3.0716400146 0.45964699984 -0.5 -2.8458900452 0.23675900698 -0.5
          -3.1714200974 0.28492799401 -0.5 -3.0582199097 0.31288200617 -0.29153999686
          -5 0.15884299576 0.21330599487 -4.7674899101 0.33730000257 0.27226099372
          -5 0.32793700695 0.27663400769 -5 0.28975299001 0.088944099844
          -0.77020597458 0.5 0.12030699849 -0.71377199888 0.30195298791 0.28811401129
          -0.68823200464 0.30021798611 0.030239600688 -0.86464500427 0.18405400217 0.1796399951
          4.1033101082 0.5 -0.16609400511 4.213329792 0.5 0.0031955000013
          4.2944598198 0.20695400238 -0.17472800612 4.0785198212 0.2688550055 0.022481000051
          -4.6633000374 0.5 0.39759600163 -4.8403701782 0.49637499452 0.5
          -4.7492098808 0.3132250011 0.5 -4.7674899101 0.33730000257 0.27226099372
          -3.4390599728 0.16396200657 -0.12648099661 -3.4697299004 0.28407201171 -0.298379004
          -3.6415400505 0.18903900683 -0.16241000593 -3.5893199444 0.032997198403 -0.29434099793
          -3.7068300247 -0.31349000335 0.29142400622 -3.7200200558 -0.5 0.14442199469
          -3.6202099323 -0.16945900023 0.16224400699 -3.7506599426 -0.28654700518 -0.026961300522
          2.8704299927 -0.5 -0.1951110065 2.7792201042 -0.32771399617 -0.28562399745
          2.9524600506 -0.22408300638 -0.21185599267 2.809910059 -0.30858701468 -0.088228099048
          -1.8656400442 0.28522598743 -0.2969610095 -1.7420699596 0.2584669888 -0.11043199897
          -1.6463500261 0.28474900126 -0.30618798733 -1.7309900522 0.022700900212 -0.2696749866
          4.0785198212 0.2688550055 0.022481000051 4.1333699226 0.29578199983 0.28484800458
          3.9115200043 0.5 0.15832599998 4.0968198776 0.5 0.16808399558
          -2.6128799915 0.13250499964 0.27421799302 -2.739109993 0.35740399361 0.5
          -2.568860054 0.328433007 0.33221000433 -2.6651101112 0.18645100296 0.5
          3.4734098911 0.21108800173 -0.2205349952 3.2970399857 0.30501198769 -0.2939350009
          3.4120700359 0.12526200712 -0.5 3.5376200676 0.42240199447 -0.5
          2.1815600395 -0.001020470052 -0.32536798716 2.040199995 0.016450500116 -0.5
          2.3120000362 -0.058240499347 -0.5 2.2902700901 0.13368199766 -0.5
          -3.8883500099 -0.22696000338 0.22436200082 -4.0945601463 -0.28051298857 0.31798601151
          -4.0238199234 -0.033451199532 0.28527000546 -3.8706200123 -0.17432299256 0.5
          2.6561300755 0.37442401052 -0.5 2.6973400116 0.5 -0.29229000211
          2.8296399117 0.5 -0.49776399136 2.8429698944 0.28180000186 -0.27394500375
          -0.28813400865 0.5 -0.011587300338 -0.50226300955 0.5 0.14767700434
          -0.29486501217 0.23727999628 0.084538802505 -0.47131600976 0.32570299506 -0.023170199245
          3.3688399792 0.28460401297 0.022468499839 3.2946200371 0.5 -0.20856200159
          3.2171900272 0.5 -0.054951798171 3.2970399857 0.30501198769 -0.2939350009
          1.7197300196 -0.0059337001294 -0.015229499899 1.7132099867 0.18727500737 0.17964400351
          1.6828099489 -0.15067499876 0.17043499649 1.4909499884 0.035039100796 0.2443370074
          4.7124700546 0.20787400007 -0.21475000679 5 0.16910900176 -0.16435900331
          4.8905501366 0.13403299451 -0.5 4.7696099281 -0.016697799787 -0.29300200939
          1.8424299955 0.5 0.20660300553 2.0662400723 0.5 0.45344299078
          2.1185901165 0.5 0.19517299533 2.0367600918 0.30077698827 0.30471900105
          -0.6270070076 -0.18018999696 -0.18880400062 -0.74285399914 0.13776800036 -0.12904399633
          -0.7856760025 -0.061230801046 -0.29652500153 -0.63783198595 0.084412999451 -0.319272995
          3.6361598969 -0.5 0.14722600579 3.5110299587 -0.5 0.32628598809
          3.678839922 -0.28315201402 0.29635599256 3.7603299618 -0.5 0.32295900583
          -3.0681700706 -0.022411899641 -0.31216698885 -3.0067799091 -0.070524998009 -0.1112980023
          -3.1692500114 -0.17956000566 -0.18042400479 -3.2168300152 0.015511999838 -0.16400499642
          3.5617899895 0.20520099998 0.20095099509 3.8265800476 -0.00065459497273 0.32086899877
          3.6606800556 0.057222399861 0.047008000314 3.6032299995 -0.0550327003 0.29886201024
          0.71499300003 0.033225100487 -0.28708100319 0.52369099855 -0.25701698661 -0.29001700878
          0.82210099697 -0.27426099777 -0.29057401419 0.69139498472 -0.21342000365 -0.5
          1.7197300196 -0.0059337001294 -0.015229499899 1.7132099867 0.18727500737 0.17964400351
          1.9609899521 0.27691298723 0.076514601707 1.9567300081 0.0023706499487 0.0081458101049
          2.9589400291 -0.2156240046 -0.5 3.1227400303 -0.30917099118 -0.31313300133
          2.9336800575 -0.44553801417 -0.5 2.9524600506 -0.22408300638 -0.21185599267
          3.1227400303 -0.30917099118 -0.31313300133 3.120470047 -0.021967599168 -0.27757799625
          2.9524600506 -0.22408300638 -0.21185599267 2.9589400291 -0.2156240046 -0.5
          -1.3262499571 0.2814899981 -0.050565201789 -1.4028999805 0.13422000408 0.12791000307
          -1.1475800276 0.23044300079 0.22876000404 -1.2951300144 0.045372098684 -0.065485596657
          4.5822200775 0.29958099127 -0.0073895901442 4.5328998566 0.5 0.15708899498
          4.7387499809 0.5 0.12298899889 4.7025499344 0.19734199345 0.20103999972
          -3.7200200558 -0.5 0.14442199469 -3.6202099323 -0.16945900023 0.16224400699
          -3.5598199368 -0.5 0.038439199328 -3.7068300247 -0.31349000335 0.29142400622
          -4.2342700958 -0.2943969965 -0.036790598184 -4.0987300873 -0.5 0.24074499309
          -4.022600174 -0.31765198708 -0.031538199633 -4.2580599785 -0.5 -0.032561998814
          3.8187499046 -0.026935700327 0.5 3.657200098 0.044741101563 0.5
          3.7090001106 -0.1736509949 0.5 3.6032299995 -0.0550327003 0.29886201024
          1.6971999407 -0.18535399437 -0.17042499781 1.7917699814 -0.17960299551 -0.5
          1.9453500509 -0.087545797229 -0.2573390007 1.6074999571 0.030789300799 -0.26509699225
          1.0077899694 -0.3314499855 -0.5 0.93736201525 -0.5 -0.41163700819
          0.69139498472 -0.21342000365 -0.5 0.82210099697 -0.27426099777 -0.29057401419
          5 0.35498699546 -0.28927499056 4.9951200485 0.5 -0.11868099868
          4.6908898354 0.5 -0.18460099399 4.7633600235 0.5 -0.40220698714
          4.7387499809 0.5 0.12298899889 4.8042798042 0.5 0.31367200613
          4.8432202339 0.33124399185 0.15127900243 4.7025499344 0.19734199345 0.20103999972
          3.9115200043 0.5 0.15832599998 3.867939949 0.29484701157 -0.023631099612
          3.730230093 0.5 0.19785399735 3.8664000034 0.19483299553 0.16909499466
          4.3127498627 0.19265699387 0.16710400581 4.0886101723 0.063145399094 0.2613709867
          4.0779399872 0.0020779399201 -0.0058176601306 4.0785198212 0.2688550055 0.022481000051
          4.7205901146 0.28053200245 -0.5 4.501060009 0.27867999673 -0.21826599538
          4.5407099724 0.5 -0.4572699964 4.7633600235 0.5 -0.40220698714
          -3.606400013 -0.5 0.29930099845 -3.8540000916 -0.5 0.28207299113
          -3.7068300247 -0.31349000335 0.29142400622 -3.7172999382 -0.46028399467 0.5
          3.5110299587 -0.5 0.32628598809 3.4452700615 -0.38378500938 0.5
          3.678839922 -0.28315201402 0.29635599256 3.6408600807 -0.47381699085 0.5
          3.678839922 -0.28315201402 0.29635599256 3.4452700615 -0.38378500938 0.5
          3.7090001106 -0.1736509949 0.5 3.6408600807 -0.47381699085 0.5
          -1.5013799667 0.5 0.29929700494 -1.3802700043 0.5 0.48661699891
          -1.45697999 0.29096999764 0.5 -1.7108399868 0.45766401291 0.5
          4.6710700989 -0.19623799622 0.19057400525 4.8106999397 -0.29430899024 0.31109198928
          4.794479847 -0.0099189598113 0.26575800776 5 -0.20979200304 0.28537601233
          -4.3489499092 -0.10022199899 -0.5 -4.2221798897 -0.17677399516 -0.20671699941
          -4.4539299011 -0.1930360049 -0.27674099803 -4.4012899399 0.03873860091 -0.27101901174
          -2.2661499977 -0.26958799362 0.5 -2.3103899956 -0.47168698907 0.5
          -2.1087300777 -0.5 0.46349099278 -2.3618400097 -0.32881900668 0.3184300065
          0.58827602863 -0.023083500564 0.03204099834 0.58512401581 -0.18639500439 0.18318599463
          0.3798109889 -0.11770299822 0.17650899291 0.46630200744 0.046083901078 0.25881299376
          -4.1503901482 0.15257999301 -0.18268600106 -4.3864398003 0.25989100337 -0.089046299458
          -4.2314600945 0.092286400497 0.01309709996 -4.4012899399 0.03873860091 -0.27101901174
          -0.33964401484 -0.12936100364 0.5 -0.10500200093 -0.014513599686 0.5
          -0.16119599342 0.084271103144 0.32078498602 -0.17885400355 -0.17817400396 0.19088800251
          3.6093900204 0.31306898594 -0.027008600533 3.5617899895 0.20520099998 0.20095099509
          3.730230093 0.5 0.19785399735 3.730809927 0.29602000117 0.3136009872
          -2.9157800674 -0.27548700571 -0.5 -2.9800601006 -0.5 -0.40619799495
          -2.8245999813 -0.5 -0.29598200321 -2.704449892 -0.5 -0.44117501378
          3.4532198906 -0.27570098639 -0.28086999059 3.4951400757 -0.11613500118 -0.5
          3.7685399055 -0.11422099918 -0.34736299515 3.6450901031 -0.17131699622 -0.19211299717
          1.9567300081 0.0023706499487 0.0081458101049 1.7197300196 -0.0059337001294 -0.015229499899
          1.8764899969 -0.15924200416 -0.081890702248 1.9453500509 -0.087545797229 -0.2573390007
          -0.62403798103 0.035430200398 0.037675399333 -0.86464500427 0.18405400217 0.1796399951
          -0.81901800632 -0.064964897931 -0.069114297628 -0.74285399914 0.13776800036 -0.12904399633
          -0.21006199718 -0.066769301891 -0.5 -0.24800799787 0.0088232699782 -0.29918900132
          -0.028405899182 0.038570299745 -0.28863999248 -0.11357299984 -0.14485199749 -0.33142700791
          -0.22633899748 -0.5 0.0026503999252 -0.18628300726 -0.26750600338 -0.029726099223
          -0.035155199468 -0.5 0.074470199645 -0.17885400355 -0.17817400396 0.19088800251
          0.03605210036 -0.1630679965 0.5 -0.10500200093 -0.014513599686 0.5
          0.028599999845 -0.025005400181 0.30730199814 0.15341800451 0.023780800402 0.5
          0.70115399361 -0.13068500161 -0.12672199309 0.57815998793 -0.31825500727 -0.050177000463
          0.82210099697 -0.27426099777 -0.29057401419 0.52369099855 -0.25701698661 -0.29001700878
          -1.5764600039 0.36043098569 -0.5 -1.6768000126 0.5 -0.27391400933
          -1.4210100174 0.5 -0.29471999407 -1.6463500261 0.28474900126 -0.30618798733
          2.2007598877 0.32477998734 -0.29550099373 2.2902700901 0.13368199766 -0.5
          2.4688100815 0.27537798882 -0.28756999969 2.3855099678 0.34596499801 -0.5
          -3.7068300247 -0.31349000335 0.29142400622 -3.6202099323 -0.16945900023 0.16224400699
          -3.5598199368 -0.5 0.038439199328 -3.4786798954 -0.29719600081 0.28423199058
          -3.1307299137 0.1212079972 0.5 -3.177740097 0.19153399765 0.19352599978
          -3.2058999538 0.30942299962 0.5 -3.315500021 0.091922298074 0.5
          1.2840600014 -0.15874500573 -0.5 1.2096600533 0.029559800401 -0.5
          1.139539957 -0.036767199636 -0.30390501022 1.0786999464 -0.15874500573 -0.5
          -3.7526800632 0.5 -0.34413599968 -3.5694301128 0.5 -0.27657601237
          -3.7156999111 0.29170098901 -0.33228498697 -3.6554999352 0.5 -0.12951600552
          -4.237349987 -0.30583998561 0.5 -4.5459198952 -0.24766799808 0.5
          -4.5071802139 -0.46488499641 0.5 -4.3996100426 -0.5 0.31058299541
          -4.3489499092 -0.10022199899 -0.5 -4.5893697739 -0.027997599915 -0.31035900116
          -4.5744199753 0.044033199549 -0.5 -4.4012899399 0.03873860091 -0.27101901174
          3.120470047 -0.021967599168 -0.27757799625 3.0909199715 0.094946503639 -0.5
          3.2644200325 -0.026787700132 -0.5 3.2905800343 0.095524303615 -0.3324739933
          4.5181698799 -0.25569599867 -0.00080205698032 4.7109298706 -0.5 0.037262801081
          4.6710700989 -0.19623799622 0.19057400525 4.814139843 -0.29069000483 0.014058699831
          -0.18628300726 -0.26750600338 -0.029726099223 -0.169242993 0.019168399274 -0.0072063799016
          -0.014323200099 -0.10396199673 0.093425601721 -0.17885400355 -0.17817400396 0.19088800251
          -0.29334101081 0.37132000923 0.5 -0.54225701094 0.182366997 0.5
          -0.30416700244 0.12715099752 0.5 -0.38609901071 0.25310799479 0.3300819993
          1.0667099953 0.30986699462 -0.00099666800816 0.96667098999 0.22423000634 0.21116599441
          0.89332699776 0.23076300323 -0.16234900057 0.71180897951 0.31379199028 -0.019653400406
          -2.4805099964 -0.5 -0.46317800879 -2.6997199059 -0.29153099656 -0.5
          -2.4834799767 -0.27802801132 -0.5 -2.6132099628 -0.29757499695 -0.26779401302
          -2.9412100315 -0.31262499094 -0.011466300115 -2.8699100018 0.034952599555 0.013808799908
          -3.0034298897 -0.12146800011 0.11256500334 -2.8483600616 -0.1823129952 -0.18523199856
          1.2553399801 0.02869570069 -0.044535700232 1.2041200399 0.21308499575 -0.18568199873
          1.035220027 0.14891000092 -0.29856100678 1.139539957 -0.036767199636 -0.30390501022
          -4.0997099876 -0.04042249918 -0.065122202039 -4.411260128 -0.00020594299713 -0.0010824199999
          -4.2314600945 0.092286400497 0.01309709996 -4.1423802376 -0.18350799382 0.11192400008
          0.12759399414 -0.5 -0.23184600472 -0.035155199468 -0.5 0.074470199645
          0.10427799821 -0.31776800752 -0.01549869962 0.2626529932 -0.5 -0.065027400851
          1.5954600573 -0.5 -0.26120200753 1.673140049 -0.32074698806 -0.32187500596
          1.8518699408 -0.5 -0.39846301079 1.8699899912 -0.30787700415 -0.26772201061
          -0.93832302094 -0.045258000493 0.24930199981 -0.96254199743 0.19088900089 0.5
          -0.86464500427 0.18405400217 0.1796399951 -0.70620900393 0.037291798741 0.28922000527
          4.7124700546 0.20787400007 -0.21475000679 4.6908898354 0.5 -0.18460099399
          4.501060009 0.27867999673 -0.21826599538 4.7633600235 0.5 -0.40220698714
          -1.0172100067 0.25485399365 -0.020222399384 -1.1475800276 0.23044300079 0.22876000404
          -0.86464500427 0.18405400217 0.1796399951 -1.1438100338 0.013993400149 0.21154500544
          -2.4325098991 0.0032291798852 0.31787699461 -2.4091000557 0.010666499846 0.010404500179
          -2.6128799915 0.13250499964 0.27421799302 -2.6441700459 0.0031107501127 0.0051095401868
          -4.6812400818 0.14698000252 0.1767770052 -4.7674899101 0.33730000257 0.27226099372
          -5 0.15884299576 0.21330599487 -5 0.28975299001 0.088944099844
          -4.2342700958 -0.2943969965 -0.036790598184 -4.0541300774 -0.5 -0.16820600629
          -4.0849199295 -0.30423098803 -0.31639400125 -4.2746400833 -0.5 -0.25492700934
          4.289440155 0.31779500842 -0.5 4.2950100899 0.5 -0.35224300623
          4.5407099724 0.5 -0.4572699964 4.4979701042 0.25243699551 -0.5
          1.5954600573 -0.5 -0.26120200753 1.2955499887 -0.5 -0.41003099084
          1.5757000446 -0.34572100639 -0.5 1.3746500015 -0.33837598562 -0.5
          3.4302000999 -0.042014900595 -0.25968700647 3.6450901031 -0.17131699622 -0.19211299717
          3.6228199005 0.064896397293 -0.30187800527 3.4951400757 -0.11613500118 -0.5
          -4.6633000374 0.5 0.39759600163 -4.8403701782 0.49637499452 0.5
          -4.7674899101 0.33730000257 0.27226099372 -4.9243597984 0.5 0.31349301338
          4.4995098114 -0.5 0.058421999216 4.5328397751 -0.5 0.28382301331
          4.34815979 -0.5 0.30085599422 4.4824900627 -0.2778429985 0.28902798891
          -4.8396000862 0.080449603498 -0.5 -4.7695999146 0.26816898584 -0.5
          -4.7847399712 0.018612299114 -0.27819800377 -4.7795901299 0.30410701036 -0.28243198991
          -1.6999100447 -0.016917800531 0.25771600008 -1.9649800062 -0.0049698902294 0.29592001438
          -1.9215400219 -0.19377499819 0.17684599757 -1.9655499458 0.017111200839 0.015656199306
          -0.12994900346 0.14103500545 -0.5 -0.25742098689 0.29623898864 -0.3442530036
          -0.18946300447 0.17974199355 -0.1773750037 -0.24800799787 0.0088232699782 -0.29918900132
          -1.8413699865 0.28546500206 0.5 -1.8209400177 0.5 0.2201499939
          -1.6647800207 0.24374599755 0.22540199757 -1.7108399868 0.45766401291 0.5
          -2.2611498833 -0.21604500711 -0.31563100219 -2.3032701015 -0.32206401229 -0.5
          -2.4834799767 -0.27802801132 -0.5 -2.461810112 -0.5 -0.23160800338
          1.5854899883 0.5 -0.19192999601 1.4356100559 0.30725300312 0.014958400279
          1.6601899862 0.29914501309 -0.0094896201044 1.4860899448 0.23913800716 -0.2658199966
          -0.11969800293 0.24129599333 0.5 0.057354498655 0.2768329978 0.30196899176
          -0.085543900728 0.5 0.4370740056 -0.16925099492 0.29148900509 0.27573001385
          -3.8883500099 -0.22696000338 0.22436200082 -4.0945601463 -0.28051298857 0.31798601151
          -3.8706200123 -0.17432299256 0.5 -3.9475998878 -0.42686000466 0.5
          -2.7622299194 0.5 0.0010923099471 -2.7599999905 0.5 0.28317898512
          -2.5066099167 0.5 0.23033800721 -2.6367399693 0.26534798741 0.078260503709
          3.2869899273 -0.28170898557 0.32561299205 3.1743900776 -0.18350000679 0.1536089927
          2.9692099094 -0.18215200305 0.27709600329 3.0828099251 -0.5 0.29510200024
          0.084536299109 -0.24571800232 -0.5 0.27028900385 -0.5 -0.35754400492
          0.02034159936 -0.29206499457 -0.27554398775 0.29461199045 -0.27944099903 -0.5
          4.0595002174 -0.45859000087 -0.5 4.0967798233 -0.21491999924 -0.5
          4.1566100121 -0.27463600039 -0.28568801284 3.92689991 -0.25916099548 -0.5
          3.18708992 -0.32281601429 -0.009787529707 3.1743900776 -0.18350000679 0.1536089927
          3.4722599983 -0.22174499929 0.20733100176 3.2869899273 -0.28170898557 0.32561299205
          4.373770237 0.29578301311 -0.0035506200511 4.2976098061 0.5 -0.16453999281
          4.213329792 0.5 0.0031955000013 4.2944598198 0.20695400238 -0.17472800612
          4.373770237 0.29578301311 -0.0035506200511 4.4144301414 0.5 -0.014668799937
          4.213329792 0.5 0.0031955000013 4.2976098061 0.5 -0.16453999281
          -3.8034300804 0.010254199617 -0.24826699495 -3.7646200657 -0.015583699569 -0.5
          -3.7156999111 0.29170098901 -0.33228498697 -3.8300800323 0.22917799652 -0.5
          3.2362499237 -0.1912920028 -0.17273800075 3.1624600887 -0.015569499694 -0.02179059945
          3.1743900776 -0.18350000679 0.1536089927 3.18708992 -0.32281601429 -0.009787529707
          3.2248399258 -0.5 -0.3111949861 3.18708992 -0.32281601429 -0.009787529707
          3.3585400581 -0.5 -0.16122399271 3.0969901085 -0.5 -0.1024639979
          3.18708992 -0.32281601429 -0.009787529707 3.4506099224 -0.25270500779 -0.04623780027
          3.3585400581 -0.5 -0.16122399271 3.3018300533 -0.5 0.031524900347
          -0.62403798103 0.035430200398 0.037675399333 -0.40286201239 -0.0046954802237 -0.0054140798748
          -0.53887498379 -0.034443799406 0.20534600317 -0.55149698257 0.19303299487 0.18695600331
          4.8042798042 0.5 0.31367200613 4.9611001015 0.5 0.44039601088
          4.9942002296 0.5 0.13716499507 5 0.27808099985 0.26434999704
          3.6328399181 -0.30484598875 0.056098300964 3.4722599983 -0.22174499929 0.20733100176
          3.424779892 -0.5 0.16588500142 3.4506099224 -0.25270500779 -0.04623780027
          1.0351999998 0.5 -0.23184999824 1.2285900116 0.5 1.5277299099e-05
          1.2041200399 0.21308499575 -0.18568199873 1.0667099953 0.30986699462 -0.00099666800816
          2.2021598816 0.01178739965 -0.018270699307 2.1986699104 0.16770100594 0.18445199728
          1.9567300081 0.0023706499487 0.0081458101049 2.0588099957 0.16667899489 -0.072469100356
          2.4688100815 0.27537798882 -0.28756999969 2.2796599865 0.15909999609 -0.20078100264
          2.4390499592 -0.057027101517 -0.2462310046 2.4803700447 0.1678159982 -0.5
          2.4688100815 0.27537798882 -0.28756999969 2.4481799603 0.24948500097 0.0013240700355
          2.6477799416 0.16645799577 -0.17383100092 2.2796599865 0.15909999609 -0.20078100264
          -3.0034298897 -0.12146800011 0.11256500334 -2.9220399857 -0.26491099596 0.30408999324
          -2.9183399677 -0.016215600073 0.29276099801 -2.7145900726 -0.082542397082 0.279302001
          -4.6261501312 0.17262099683 -0.1935839951 -4.765540123 0.29459398985 -0.015708299354
          -4.5506501198 0.30194398761 0.066922001541 -4.5986399651 0.089573398232 -0.0050773997791
          -4.6261501312 0.17262099683 -0.1935839951 -4.3864398003 0.25989100337 -0.089046299458
          -4.5986399651 0.089573398232 -0.0050773997791 -4.5506501198 0.30194398761 0.066922001541
          -3.8883500099 -0.22696000338 0.22436200082 -3.7068300247 -0.31349000335 0.29142400622
          -3.6202099323 -0.16945900023 0.16224400699 -3.7506599426 -0.28654700518 -0.026961300522
          -2.7104799747 -0.5 0.29420700669 -2.6140599251 -0.2892279923 0.31681698561
          -2.9220399857 -0.26491099596 0.30408999324 -2.6965899467 -0.25478899479 0.070601798594
          -3.1326100826 -0.026751099154 0.30142500997 -2.9183399677 -0.016215600073 0.29276099801
          -2.8798100948 0.024562800303 0.5 -3.1307299137 0.1212079972 0.5
          3.8187499046 -0.026935700327 0.5 3.7090001106 -0.1736509949 0.5
          3.8831400871 -0.19151799381 0.5 3.8265800476 -0.00065459497273 0.32086899877
          -3.0080699921 0.29238799214 0.028416100889 -3.0582199097 0.31288200617 -0.29153999686
          -3.1328499317 0.5 -0.05846099928 -3.2586500645 0.20448499918 -0.21992500126
          1.0735499859 -0.2803800106 -0.2859480083 0.96319800615 -0.25574100018 -0.086030602455
          0.93065899611 -0.030296299607 -0.23989999294 1.139539957 -0.036767199636 -0.30390501022
          4.7696099281 -0.016697799787 -0.29300200939 5 -0.025442499667 -0.21136300266
          4.6962199211 -0.21809899807 -0.17522199452 4.7783799171 -0.058915100992 0.015639599413
          1.3224300146 0.5 -0.35919898748 1.0351999998 0.5 -0.23184999824
          1.2041200399 0.21308499575 -0.18568199873 1.1232800484 0.5 -0.40171200037
          -4.6675601006 -0.16073800623 -0.17753699422 -4.4539299011 -0.1930360049 -0.27674099803
          -4.5859699249 -0.5 -0.20652399957 -4.439789772 -0.27735000849 -0.054897699505
          1.4914300442 0.0569607988 -0.04182960093 1.7132099867 0.18727500737 0.17964400351
          1.7197300196 -0.0059337001294 -0.015229499899 1.4909499884 0.035039100796 0.2443370074
          3.1624600887 -0.015569499694 -0.02179059945 3.4346001148 0.010584499687 0.0013051299611
          3.3688399792 0.28460401297 0.022468499839 3.1808700562 0.17408800125 -0.17278499901
          -0.75955200195 0.2530399859 -0.5 -0.94353401661 0.5 -0.43025898933
          -0.92764699459 0.27740699053 -0.26456698775 -1.0519599915 0.24375100434 -0.5
          -2.6850099564 0.20022499561 -0.22423900664 -2.6364200115 -0.0513737984 -0.25086298585
          -2.8699100018 0.034952599555 0.013808799908 -2.6441700459 0.0031107501127 0.0051095401868
          -0.36137199402 0.054711200297 -0.5 -0.25742098689 0.29623898864 -0.3442530036
          -0.24800799787 0.0088232699782 -0.29918900132 -0.47644600272 0.21734400094 -0.22011299431
          2.9692099094 -0.18215200305 0.27709600329 2.9201900959 0.0039753098972 -0.016150400043
          2.9353599548 0.054025001824 0.25657498837 2.7103700638 -0.17533199489 0.17696000636
          -2.6441700459 0.0031107501127 0.0051095401868 -2.8607199192 0.16806200147 0.1988620013
          -2.6367399693 0.26534798741 0.078260503709 -2.6128799915 0.13250499964 0.27421799302
          -1.7309900522 0.022700900212 -0.2696749866 -1.6403199434 -0.1704210043 -0.5
          -1.670410037 -0.23073199391 -0.21768200397 -1.5251499414 -0.076651901007 -0.31482899189
          -0.020521700382 0.27518200874 -0.3097819984 -0.18946300447 0.17974199355 -0.1773750037
          -0.12392300367 0.5 -0.12977199256 -0.021123599261 0.2901929915 -0.037268299609
          3.1800200939 0.15828900039 0.1766680032 3.1624600887 -0.015569499694 -0.02179059945
          3.3688399792 0.28460401297 0.022468499839 3.1808700562 0.17408800125 -0.17278499901
          4.8106999397 -0.29430899024 0.31109198928 4.6710700989 -0.19623799622 0.19057400525
          4.5328397751 -0.5 0.28382301331 4.8184399605 -0.5 0.27545198798
          -3.4066801071 0.46902000904 -0.5 -3.1714200974 0.28492799401 -0.5
          -3.3607699871 0.21685799956 -0.5 -3.2381598949 0.5 -0.3880290091
          -2.1895999908 0.28031998873 -0.27681100368 -2.4157299995 0.5 -0.27320700884
          -2.3742499352 0.16180799901 -0.16647900641 -2.4949100018 0.29038199782 -0.30940899253
          1.3224300146 0.5 -0.35919898748 1.1232800484 0.5 -0.40171200037
          1.2041200399 0.21308499575 -0.18568199873 1.2371799946 0.38177201152 -0.5
          4.4281401634 -0.5 -0.37787801027 4.4999699593 -0.30107301474 -0.267922014
          4.6661100388 -0.5 -0.39997300506 4.5304999352 -0.5 -0.15178099275
          -0.7581089735 -0.15487499535 -0.5 -0.89940702915 0.048585001379 -0.5
          -0.72751402855 0.0171670001 -0.5 -0.7856760025 -0.061230801046 -0.29652500153
          4.1665101051 -0.5 0.35283499956 4.2311301231 -0.28602001071 0.30712598562
          4.296959877 -0.5 0.12259899825 4.34815979 -0.5 0.30085599422
          -3.7465999126 0.5 0.026138799265 -4.0201997757 0.5 0.0039351000451
          -3.8539500237 0.5 0.19824199378 -3.7612600327 0.27116200328 0.015408799984
          1.7132099867 0.18727500737 0.17964400351 1.9551000595 0.040498699993 0.28340399265
          1.9609899521 0.27691298723 0.076514601707 1.9567300081 0.0023706499487 0.0081458101049
          3.6328399181 -0.30484598875 0.056098300964 3.424779892 -0.5 0.16588500142
          3.4999299049 -0.5 -8.444820196e-06 3.4506099224 -0.25270500779 -0.04623780027
          3.4012000561 -0.17302200198 0.5 3.2869899273 -0.28170898557 0.32561299205
          3.3886699677 0.01943529956 0.25713300705 3.1743099689 -0.022352099419 0.31030499935
          4.5424098969 -0.083453699946 0.5 4.794479847 -0.0099189598113 0.26575800776
          4.7622699738 -0.21942800283 0.5 4.7967801094 -0.036810200661 0.5
          -1.2951300144 0.045372098684 -0.065485596657 -1.1438100338 0.013993400149 0.21154500544
          -1.1475800276 0.23044300079 0.22876000404 -1.0750999451 -0.011404699646 0.007108009886
          -0.35255399346 0.016716400161 0.25871700048 -0.30416700244 0.12715099752 0.5
          -0.54225701094 0.182366997 0.5 -0.38609901071 0.25310799479 0.3300819993
          3.9538800716 -0.19349299371 -0.21224999428 4.1566100121 -0.01251959987 -0.28246301413
          4.1160001755 -0.25597798824 -0.023964699358 4.0779399872 0.0020779399201 -0.0058176601306
          1.9609899521 0.27691298723 0.076514601707 2.0367600918 0.30077698827 0.30471900105
          2.1185901165 0.5 0.19517299533 2.1986699104 0.16770100594 0.18445199728
          -4.2864198685 0.30046600103 -0.30744600296 -4.500120163 0.30916801095 -0.29975399375
          -4.4078397751 0.5 -0.27026000619 -4.3864398003 0.25989100337 -0.089046299458
          1.6531300545 -0.5 0.42902299762 1.4243400097 -0.5 0.34605500102
          1.6352499723 -0.5 0.19289499521 1.4891799688 -0.27188199759 0.26980000734
          -0.94314199686 -0.25431698561 0.040656600147 -1.0750999451 -0.011404699646 0.007108009886
          -1.1855100393 -0.25224798918 -0.0140108997 -0.93913400173 -0.20071199536 -0.20192199945
          3.9605000019 0.5 0.34884899855 3.7404100895 0.5 0.40195301175
          3.9557700157 0.35738798976 0.5 3.730809927 0.29602000117 0.3136009872
          -0.47644600272 0.21734400094 -0.22011299431 -0.47131600976 0.32570299506 -0.023170199245
          -0.68823200464 0.30021798611 0.030239600688 -0.68140697479 0.28639298677 -0.28938999772
          2.6700599194 -0.18108099699 -0.17258299887 2.4389500618 -0.2577829957 -0.080456696451
          2.4597499371 -0.30076900125 -0.3059630096 2.4390499592 -0.057027101517 -0.2462310046
          1.3978899717 -0.017269099131 0.5 1.4909499884 0.035039100796 0.2443370074
          1.3807200193 0.21050100029 0.5 1.2891700268 0.025188799948 0.31899100542
          -2.0084600449 0.5 0.30924999714 -1.9903299809 0.30669298768 -0.0096472296864
          -1.9560199976 0.18910500407 0.17773799598 -1.8121700287 0.32682698965 0.085832998157
          1.9551000595 0.040498699993 0.28340399265 2.2194900513 -0.0036427800078 0.3248629868
          2.1986699104 0.16770100594 0.18445199728 2.1778399944 -0.17710599303 0.19188399613
          -0.96304500103 0.042934101075 -0.20367699862 -1.0471099615 0.090339496732 -0.5
          -0.98949998617 -0.096335403621 -0.5 -0.89940702915 0.048585001379 -0.5
          3.424779892 -0.5 0.16588500142 3.4722599983 -0.22174499929 0.20733100176
          3.6361598969 -0.5 0.14722600579 3.5110299587 -0.5 0.32628598809
          2.0565500259 -0.31903299689 0.2972239852 1.8388400078 -0.37851500511 0.5
          1.8518699408 -0.5 0.28856000304 1.8512899876 -0.25720700622 0.29749301076
          -1.334980011 -0.066682696342 0.27562999725 -1.432109952 0.071380198002 0.5
          -1.5496799946 -0.11574400216 0.5 -1.5232800245 0.099855400622 0.30515301228
          -0.55561101437 -0.26461198926 0.5 -0.33964401484 -0.12936100364 0.5
          -0.47073799372 -0.22246700525 0.21898700297 -0.29698100686 -0.33138298988 0.28727200627
          2.4116399288 0.33501198888 0.26824301481 2.2874000072 0.5 0.36383101344
          2.3991000652 0.5 0.11198899895 2.5257198811 0.5 0.37575000525
          -1.5013799667 0.5 0.29929700494 -1.7108399868 0.45766401291 0.5
          -1.45697999 0.29096999764 0.5 -1.6647800207 0.24374599755 0.22540199757
          -1.5013799667 0.5 0.29929700494 -1.7108399868 0.45766401291 0.5
          -1.6647800207 0.24374599755 0.22540199757 -1.8209400177 0.5 0.2201499939
          -1.0519599915 0.24375100434 -0.5 -1.0104800463 0.5 -0.2601659894
          -0.92764699459 0.27740699053 -0.26456698775 -1.2071399689 0.32934400439 -0.5
          -2.011950016 0.41811999679 0.5 -2.2189500332 0.32305899262 0.5
          -2.1011199951 0.16092300415 0.5 -2.0332100391 0.28143399954 0.34608799219
          -1.4028999805 0.13422000408 0.12791000307 -1.6647800207 0.24374599755 0.22540199757
          -1.5232800245 0.099855400622 0.30515301228 -1.5096600056 -0.035843800753 0.024828599766
          -3.9185600281 -0.21505500376 -0.20922599733 -3.8106400967 -0.5 -0.18066500127
          -4.0541300774 -0.5 -0.16820600629 -4.022600174 -0.31765198708 -0.031538199633
          2.4597499371 -0.30076900125 -0.3059630096 2.6533699036 -0.5 -0.22465799749
          2.6179599762 -0.5 -0.39742100239 2.3567500114 -0.5 -0.25275498629
          -3.6415400505 0.18903900683 -0.16241000593 -3.8034300804 0.010254199617 -0.24826699495
          -3.5974299908 0.015700999647 0.0042460002005 -3.5893199444 0.032997198403 -0.29434099793
          4.091340065 0.41007000208 -0.5 4.0096001625 0.5 -0.34201300144
          4.1898999214 0.32223001122 -0.31539100409 4.0157899857 0.23598599434 -0.23627699912
          1.5954600573 -0.5 -0.26120200753 1.2955499887 -0.5 -0.41003099084
          1.3746500015 -0.33837598562 -0.5 1.391010046 -0.5 -0.2258079946
          0.02034159936 -0.29206499457 -0.27554398775 -0.1279810071 -0.26361098886 -0.5
          -0.11357299984 -0.14485199749 -0.33142700791 -0.094856999815 -0.5 -0.28745400906
          4.0779399872 0.0020779399201 -0.0058176601306 3.8664000034 0.19483299553 0.16909499466
          3.8543400764 -0.043197199702 -0.061682298779 3.867939949 0.29484701157 -0.023631099612
          -2.8458900452 0.23675900698 -0.5 -2.8274400234 0.051215600222 -0.3225030005
          -2.9389500618 -0.039363101125 -0.5 -2.9752700329 0.12661999464 -0.5
          -3.0582199097 0.31288200617 -0.29153999686 -2.9752700329 0.12661999464 -0.5
          -3.1402900219 0.086144499481 -0.5 -3.0681700706 -0.022411899641 -0.31216698885
          2.2021598816 0.01178739965 -0.018270699307 2.1778399944 -0.17710599303 0.19188399613
          2.1986699104 0.16770100594 0.18445199728 2.2194900513 -0.0036427800078 0.3248629868
          4.1314902306 0.23748099804 -0.5 4.1898999214 0.32223001122 -0.31539100409
          4.289440155 0.31779500842 -0.5 4.2942700386 0.099316298962 -0.5
          -4.3489499092 -0.10022199899 -0.5 -4.1456699371 -0.049980100244 -0.5
          -4.2490501404 -0.32240501046 -0.5 -4.2221798897 -0.17677399516 -0.20671699941
          3.1800200939 0.15828900039 0.1766680032 3.4346001148 0.010584499687 0.0013051299611
          3.3688399792 0.28460401297 0.022468499839 3.1624600887 -0.015569499694 -0.02179059945
          -4.022600174 -0.31765198708 -0.031538199633 -3.9185600281 -0.21505500376 -0.20922599733
          -4.0849199295 -0.30423098803 -0.31639400125 -4.0541300774 -0.5 -0.16820600629
          3.2869899273 -0.28170898557 0.32561299205 3.0828099251 -0.5 0.29510200024
          3.1172299385 -0.5 0.090180002153 3.1743900776 -0.18350000679 0.1536089927
          3.3973500729 0.5 -0.34653198719 3.2461500168 0.28882101178 -0.5
          3.2970399857 0.30501198769 -0.2939350009 3.5376200676 0.42240199447 -0.5
          3.1571199894 0.5 0.16706800461 3.095690012 0.30450299382 0.0079884901643
          3.1800200939 0.15828900039 0.1766680032 3.3688399792 0.28460401297 0.022468499839
          1.5800199509 0.5 0.11975900084 1.626060009 0.5 0.34106299281
          1.818590045 0.3155849874 0.32314199209 1.7132099867 0.18727500737 0.17964400351
          -1.8656400442 0.28522598743 -0.2969610095 -1.9522600174 -0.011583000422 -0.29229301214
          -1.7309900522 0.022700900212 -0.2696749866 -1.8528900146 0.074574902654 -0.5
          2.9201900959 0.0039753098972 -0.016150400043 2.6700599194 -0.18108099699 -0.17258299887
          2.9524600506 -0.22408300638 -0.21185599267 2.8999099731 0.041673701257 -0.29681798816
          2.3215301037 -0.5 0.19653899968 2.0752000809 -0.5 0.1838440001
          2.2314100266 -0.30056801438 0.0065283500589 2.2669200897 -0.32125800848 0.30331799388
          -2.4325098991 0.0032291798852 0.31787699461 -2.7145900726 -0.082542397082 0.279302001
          -2.6140599251 -0.2892279923 0.31681698561 -2.4500799179 -0.18146699667 0.1914049983
          -3.6472799778 0.44761100411 -0.5 -3.5694301128 0.5 -0.27657601237
          -3.4697299004 0.28407201171 -0.298379004 -3.7156999111 0.29170098901 -0.33228498697
          0.58821898699 0.5 0.18288999796 0.46921399236 0.2665579915 0.056172598153
          0.56476098299 0.5 -0.044713400304 0.27400401235 0.5 0.12896299362
          -3.4390599728 0.16396200657 -0.12648099661 -3.5974299908 0.015700999647 0.0042460002005
          -3.353219986 0.018101999536 -0.0069937198423 -3.387419939 -0.020452000201 -0.26496699452
          -4.0997099876 -0.04042249918 -0.065122202039 -4.2314600945 0.092286400497 0.01309709996
          -4.1479997635 0.1524810046 0.18773500621 -4.1423802376 -0.18350799382 0.11192400008
          -2.4605801105 -0.31329700351 0.0017525800504 -2.32543993 -0.5 -0.016557699069
          -2.4806699753 -0.5 0.25502499938 -2.2719900608 -0.32766199112 0.080448098481
          4.5567698479 0.040265500546 -0.029345599934 4.317220211 0.013630899601 -0.032561101019
          4.5015702248 0.045086801052 0.27461698651 4.3434801102 -0.13885499537 0.17381000519
          -2.9412100315 -0.31262499094 -0.011466300115 -3.0793800354 -0.5 0.028451299295
          -2.962280035 -0.5 0.2204490006 -2.8101699352 -0.5 0.047830801457
          2.6700599194 -0.18108099699 -0.17258299887 2.6533699036 -0.5 -0.22465799749
          2.7792201042 -0.32771399617 -0.28562399745 2.4597499371 -0.30076900125 -0.3059630096
          2.6809399128 0.37128800154 0.5 2.8141000271 0.33296000957 0.21601100266
          2.6206200123 0.32416799664 0.30228099227 2.8473100662 0.22374899685 0.5
          -1.5251499414 -0.076651901007 -0.31482899189 -1.6108299494 0.078509502113 -0.5
          -1.3341200352 0.058667398989 -0.30476099253 -1.4892100096 0.17613700032 -0.19808200002
          -0.68823200464 0.30021798611 0.030239600688 -1.0172100067 0.25485399365 -0.020222399384
          -0.74285399914 0.13776800036 -0.12904399633 -0.92764699459 0.27740699053 -0.26456698775
          -0.42740899324 -0.30482000113 -0.02907329984 -0.47420999408 -0.29338499904 -0.29220598936
          -0.6270070076 -0.18018999696 -0.18880400062 -0.59884798527 -0.5 -0.081100203097
          4.3918099403 0.5 0.31080400944 4.6767001152 0.5 0.46980398893
          4.4985699654 0.29182401299 0.2750479877 4.4730300903 0.36080300808 0.5
          -0.72934299707 0.47740399837 -0.5 -0.60728102922 0.5 -0.3106789887
          -0.68140697479 0.28639298677 -0.28938999772 -0.80325001478 0.5 -0.29217898846
          1.0750000477 -0.14948399365 0.12495800108 1.2388900518 -0.17473700643 -0.16655999422
          0.96319800615 -0.25574100018 -0.086030602455 1.1665500402 -0.30232200027 0.032807700336
          -2.0332100391 0.28143399954 0.34608799219 -2.1011199951 0.16092300415 0.5
          -1.9649800062 -0.0049698902294 0.29592001438 -2.1791601181 0.066247500479 0.26825898886
          -0.020521700382 0.27518200874 -0.3097819984 -0.30496299267 0.34233599901 -0.13862299919
          -0.25742098689 0.29623898864 -0.3442530036 -0.12392300367 0.5 -0.12977199256
          4.625770092 0.13625299931 0.5 4.4985699654 0.29182401299 0.2750479877
          4.7025499344 0.19734199345 0.20103999972 4.6531600952 0.31911000609 0.5
          -2.4707000256 -0.30024200678 0.5 -2.7625899315 -0.27350199223 0.5
          -2.5125598907 -0.5 0.46646800637 -2.6140599251 -0.2892279923 0.31681698561
          -2.6140599251 -0.2892279923 0.31681698561 -2.7791500092 -0.49004599452 0.5
          -2.5125598907 -0.5 0.46646800637 -2.7104799747 -0.5 0.29420700669
          0.16357299685 0.41697001457 -0.5 -0.020521700382 0.27518200874 -0.3097819984
          -0.12616600096 0.363714993 -0.5 -0.0014522599522 0.5 -0.37516400218
          -4.4165802002 0.22745400667 0.23878499866 -4.5338001251 0.5 0.29403999448
          -4.5957798958 0.24809199572 0.32881501317 -4.5506501198 0.30194398761 0.066922001541
          -1.8528900146 0.074574902654 -0.5 -1.9522600174 -0.011583000422 -0.29229301214
          -1.7309900522 0.022700900212 -0.2696749866 -1.890920043 -0.16450600326 -0.5
          3.730809927 0.29602000117 0.3136009872 3.5066199303 0.45685198903 0.5
          3.495059967 0.19994699955 0.5 3.5264201164 0.5 0.31256499887
          -0.96304500103 0.042934101075 -0.20367699862 -1.0172100067 0.25485399365 -0.020222399384
          -0.74285399914 0.13776800036 -0.12904399633 -0.81901800632 -0.064964897931 -0.069114297628
          -3.3652899265 0.29221200943 0.018539199606 -3.5640099049 0.29994499683 -0.013255200349
          -3.5453898907 0.5 0.00052557198796 -3.3868999481 0.28687500954 0.25560098886
          -1.5013799667 0.5 0.29929700494 -1.6647800207 0.24374599755 0.22540199757
          -1.6142400503 0.5 0.032841600478 -1.8209400177 0.5 0.2201499939
          -2.8483600616 -0.1823129952 -0.18523199856 -2.6364200115 -0.0513737984 -0.25086298585
          -2.7017800808 -0.045854199678 -0.5 -2.6997199059 -0.29153099656 -0.5
          -3.8989500999 0.24744200706 -0.23554000258 -3.7526800632 0.5 -0.34413599968
          -3.7156999111 0.29170098901 -0.33228498697 -3.822799921 0.5 -0.16184200346
          4.4824900627 -0.2778429985 0.28902798891 4.6142997742 -0.33187198639 0.5
          4.5328397751 -0.5 0.28382301331 4.4160299301 -0.33252999187 0.5
          -0.14947299659 -0.5 -0.13736000657 -0.29398798943 -0.19200000167 -0.2282319963
          0.02034159936 -0.29206499457 -0.27554398775 -0.18628300726 -0.26750600338 -0.029726099223
          -3.3937699795 -0.1384550035 -0.5 -3.6039199829 -0.1486119926 -0.1880979985
          -3.406719923 -0.26567399502 -0.27803298831 -3.5095100403 -0.29471600056 -0.5
          0.02034159936 -0.29206499457 -0.27554398775 -0.094856999815 -0.5 -0.28745400906
          0.12759399414 -0.5 -0.23184600472 0.1349440068 -0.5 -0.49112400413
          -0.14947299659 -0.5 -0.13736000657 -0.30116099119 -0.5 -0.18737800419
          -0.29398798943 -0.19200000167 -0.2282319963 -0.18628300726 -0.26750600338 -0.029726099223
          -0.094856999815 -0.5 -0.28745400906 -0.29398798943 -0.19200000167 -0.2282319963
          0.02034159936 -0.29206499457 -0.27554398775 -0.14947299659 -0.5 -0.13736000657
          -0.028405899182 0.038570299745 -0.28863999248 -0.24800799787 0.0088232699782 -0.29918900132
          -0.014450499788 -0.12391400337 -0.11072800308 -0.11357299984 -0.14485199749 -0.33142700791
          0.85752302408 0.5 0.012258999981 0.56476098299 0.5 -0.044713400304
          0.71180897951 0.31379199028 -0.019653400406 0.70714598894 0.5 -0.22382299602
          2.2314100266 -0.30056801438 0.0065283500589 2.2021598816 0.01178739965 -0.018270699307
          2.2014501095 -0.17346900702 -0.18166600168 2.4389500618 -0.2577829957 -0.080456696451
          -0.96304500103 0.042934101075 -0.20367699862 -0.81901800632 -0.064964897931 -0.069114297628
          -0.74285399914 0.13776800036 -0.12904399633 -0.7856760025 -0.061230801046 -0.29652500153
          0.25332000852 -0.5 0.31911799312 0.37961798906 -0.27483201027 0.3045360148
          0.15296399593 -0.18104599416 0.18370200694 0.23762199283 -0.5 0.14814600348
          0.25332000852 -0.5 0.31911799312 0.21745100617 -0.25824698806 0.5
          0.15296399593 -0.18104599416 0.18370200694 0.37961798906 -0.27483201027 0.3045360148
          0.5808069706 -0.057113301009 -0.5 0.71499300003 0.033225100487 -0.28708100319
          0.48660299182 -0.097960598767 -0.14581799507 0.3679780066 0.042948998511 -0.26218301058
          -1.4028999805 0.13422000408 0.12791000307 -1.3727099895 0.30601900816 0.28291600943
          -1.5232800245 0.099855400622 0.30515301228 -1.6647800207 0.24374599755 0.22540199757
          4.7387499809 0.5 0.12298899889 4.9942002296 0.5 0.13716499507
          4.8203802109 0.5 -0.047230999917 4.8432202339 0.33124399185 0.15127900243
          1.1263699532 -0.31314399838 0.27022001147 0.92648899555 -0.5 0.31108599901
          0.89871001244 -0.21273000538 0.19672900438 0.95045101643 -0.36442101002 0.5
          0.3679780066 0.042948998511 -0.26218301058 0.2199189961 -0.15206000209 -0.010414100252
          0.3682860136 0.00067014299566 0.0082637900487 0.27188199759 -0.21608300507 -0.19496400654
          -1.3964400291 -0.3062709868 0.030771600083 -1.4028300047 -0.15640300512 -0.13328300416
          -1.1855100393 -0.25224798918 -0.0140108997 -1.3192800283 -0.11339899898 0.070827797055
          0.71499300003 0.033225100487 -0.28708100319 0.5808069706 -0.057113301009 -0.5
          0.69139498472 -0.21342000365 -0.5 0.82831698656 0.016366999596 -0.5
          -2.6850099564 0.20022499561 -0.22423900664 -2.6483700275 0.13034400344 -0.5
          -2.6168899536 0.31174701452 -0.5 -2.8308899403 0.31933999062 -0.31058201194
          2.8429698944 0.28180000186 -0.27394500375 2.7815999985 0.20081700385 -0.5
          2.6635499001 -0.0075318100862 -0.31723999977 2.8999099731 0.041673701257 -0.29681798816
          -4.6261501312 0.17262099683 -0.1935839951 -4.765540123 0.29459398985 -0.015708299354
          -4.7847399712 0.018612299114 -0.27819800377 -4.7795901299 0.30410701036 -0.28243198991
          2.3120000362 -0.058240499347 -0.5 2.2094399929 -0.21062499285 -0.5
          2.4597499371 -0.30076900125 -0.3059630096 2.3412098885 -0.33859500289 -0.5
          -0.78096401691 -0.28885498643 -0.091540999711 -0.86342602968 -0.5 -0.2539960146
          -1.0007799864 -0.5 -0.1113319993 -0.79164099693 -0.5 -0.074961297214
          -4.697619915 0.5 -0.22214700282 -4.514550209 0.5 -0.045017201453
          -4.6261501312 0.17262099683 -0.1935839951 -4.765540123 0.29459398985 -0.015708299354
          4.3918099403 0.5 0.31080400944 4.4730300903 0.36080300808 0.5
          4.4985699654 0.29182401299 0.2750479877 4.2713398933 0.33074501157 0.5
          -4.4446802139 0.5 0.46802300215 -4.5338001251 0.5 0.29403999448
          -4.5665698051 0.35982298851 0.5 -4.4165802002 0.22745400667 0.23878499866
          -0.65928399563 -0.29948800802 0.30083200336 -0.55561101437 -0.26461198926 0.5
          -0.47073799372 -0.22246700525 0.21898700297 -0.48325100541 -0.5 0.32274898887
          -3.177740097 0.19153399765 0.19352599978 -3.40102005 0.049610700458 0.26974400878
          -3.3652899265 0.29221200943 0.018539199606 -3.3868999481 0.28687500954 0.25560098886
          1.8518699408 -0.5 0.28856000304 1.8255000114 -0.5 0.10807599872
          1.9245300293 -0.27816799283 0.073713801801 1.8512899876 -0.25720700622 0.29749301076
          2.2007598877 0.32477998734 -0.29550099373 2.4688100815 0.27537798882 -0.28756999969
          2.2679901123 0.5 -0.42606198788 2.3855099678 0.34596499801 -0.5
          -1.1753100157 0.18597100675 -0.21642799675 -1.0172100067 0.25485399365 -0.020222399384
          -0.92764699459 0.27740699053 -0.26456698775 -0.96304500103 0.042934101075 -0.20367699862
          1.2285900116 0.5 1.5277299099e-05 1.2676099539 0.18327300251 0.17430500686
          1.3350299597 0.5 0.26320800185 1.4356100559 0.30725300312 0.014958400279
          -1.5496799946 -0.11574400216 0.5 -1.7749300003 -0.093701399863 0.5
          -1.7268799543 -0.26261898875 0.29539200664 -1.6999100447 -0.016917800531 0.25771600008
          -2.1011199951 0.16092300415 0.5 -2.0332100391 0.28143399954 0.34608799219
          -1.9165099859 0.082864999771 0.5 -1.8413699865 0.28546500206 0.5
          2.0364201069 0.5 -0.27101698518 2.2007598877 0.32477998734 -0.29550099373
          2.2679901123 0.5 -0.42606198788 2.1893599033 0.29838100076 -0.5
          -4.6261501312 0.17262099683 -0.1935839951 -4.514550209 0.5 -0.045017201453
          -4.3864398003 0.25989100337 -0.089046299458 -4.5506501198 0.30194398761 0.066922001541
          -4.7207899094 -0.18141900003 0.5 -4.7226400375 0.0055706598796 0.5
          -4.8052501678 -0.030253799632 0.27854898572 -4.605700016 -0.14155100286 0.34099599719
          -3.4394900799 0.2320100069 0.5 -3.475399971 0.5 0.31425100565
          -3.3576700687 0.44374600053 0.5 -3.5643999577 0.41731798649 0.5
          -3.8818199635 0.0094203203917 -0.0044903801754 -4.1479997635 0.1524810046 0.18773500621
          -3.8861699104 0.22745600343 0.24729199708 -4.0238199234 -0.033451199532 0.28527000546
          -1.728489995 -0.2819840014 0.029070099816 -1.670410037 -0.23073199391 -0.21768200397
          -1.3964400291 -0.3062709868 0.030771600083 -1.4028300047 -0.15640300512 -0.13328300416
          -2.8699100018 0.034952599555 0.013808799908 -2.9183399677 -0.016215600073 0.29276099801
          -2.8607199192 0.16806200147 0.1988620013 -2.7145900726 -0.082542397082 0.279302001
          4.814139843 -0.29069000483 0.014058699831 4.7109298706 -0.5 0.037262801081
          4.8106999397 -0.29430899024 0.31109198928 4.8184399605 -0.5 0.27545198798
          4.3579602242 -0.5 -0.20988300443 4.2686200142 -0.36589500308 -0.5
          4.4281401634 -0.5 -0.37787801027 4.4999699593 -0.30107301474 -0.267922014
          4.6661100388 -0.5 -0.39997300506 4.8028302193 -0.29806599021 -0.33157899976
          4.9127898216 -0.40444201231 -0.5 4.8187298775 -0.5 -0.29728299379
          1.5854899883 0.5 -0.19192999601 1.4356100559 0.30725300312 0.014958400279
          1.3762099743 0.5 -0.1532869935 1.5800199509 0.5 0.11975900084
          -2.6140599251 -0.2892279923 0.31681698561 -2.7104799747 -0.5 0.29420700669
          -2.4806699753 -0.5 0.25502499938 -2.5808300972 -0.5 0.066097401083
          2.7771201134 0.5 0.34628498554 2.8141000271 0.33296000957 0.21601100266
          3.0071001053 0.30889099836 0.30772000551 2.9283499718 0.5 0.14330999553
          1.4919899702 -0.5 0.0043379599229 1.4679900408 -0.23194299638 -0.032342601568
          1.5000799894 -0.33221799135 -0.20392900705 1.7191100121 -0.2926889956 0.013918399811
          1.0224000216 0.5 0.41114699841 1.142539978 0.300906986 0.29215401411
          0.96667098999 0.22423000634 0.21116599441 0.94293701649 0.27613300085 0.5
          3.6745901108 -0.5 -0.024972600862 3.8334798813 -0.29951399565 -0.035472199321
          3.6328399181 -0.30484598875 0.056098300964 3.6450901031 -0.17131699622 -0.19211299717
          -4.500120163 0.30916801095 -0.29975399375 -4.6541099548 0.5 -0.42925700545
          -4.7795901299 0.30410701036 -0.28243198991 -4.5752401352 0.31679400802 -0.5
          -2.6128799915 0.13250499964 0.27421799302 -2.4461400509 0.30663898587 0.5
          -2.4325098991 0.0032291798852 0.31787699461 -2.6651101112 0.18645100296 0.5
          1.6999000311 0.18993200362 -0.5 1.4860899448 0.23913800716 -0.2658199966
          1.6074999571 0.030789300799 -0.26509699225 1.51098001 0.18941000104 -0.5
          3.9605000019 0.5 0.34884899855 3.8664000034 0.19483299553 0.16909499466
          3.9557700157 0.35738798976 0.5 4.1333699226 0.29578199983 0.28484800458
          1.3224300146 0.5 -0.35919898748 1.3762099743 0.5 -0.1532869935
          1.2041200399 0.21308499575 -0.18568199873 1.0351999998 0.5 -0.23184999824
          -2.1403698921 -0.070216402411 0.5 -1.9607599974 -0.22289100289 0.5
          -1.9165099859 0.082864999771 0.5 -1.9649800062 -0.0049698902294 0.29592001438
          -1.8430000544 -0.33087998629 -0.29164901376 -1.9762599468 -0.5 -0.39294800162
          -1.7730799913 -0.5 -0.18303699791 -1.6529099941 -0.5 -0.32333600521
          2.0873699188 -0.15330499411 0.011435699649 1.9453500509 -0.087545797229 -0.2573390007
          2.2014501095 -0.17346900702 -0.18166600168 2.2021598816 0.01178739965 -0.018270699307
          -4.7795901299 0.30410701036 -0.28243198991 -4.6541099548 0.5 -0.42925700545
          -4.7695999146 0.26816898584 -0.5 -4.5752401352 0.31679400802 -0.5
          -0.81901800632 -0.064964897931 -0.069114297628 -0.93913400173 -0.20071199536 -0.20192199945
          -0.94314199686 -0.25431698561 0.040656600147 -0.78096401691 -0.28885498643 -0.091540999711
          0.89347398281 0.5 -0.40201699734 1.0351999998 0.5 -0.23184999824
          1.0355600119 0.3612369895 -0.5 0.89332699776 0.23076300323 -0.16234900057
          -1.2071299553 -0.056219801307 0.5 -1.1438100338 0.013993400149 0.21154500544
          -0.93832302094 -0.045258000493 0.24930199981 -1.0791499615 0.061705000699 0.5
          -3.1402900219 0.086144499481 -0.5 -3.3607699871 0.21685799956 -0.5
          -3.2586500645 0.20448499918 -0.21992500126 -3.387419939 -0.020452000201 -0.26496699452
          -0.38609901071 0.25310799479 0.3300819993 -0.30416700244 0.12715099752 0.5
          -0.11969800293 0.24129599333 0.5 -0.16925099492 0.29148900509 0.27573001385
          -2.332449913 0.5 0.39009299874 -2.2189500332 0.32305899262 0.5
          -2.011950016 0.41811999679 0.5 -2.0084600449 0.5 0.30924999714
          -1.6768000126 0.5 -0.27391400933 -1.9338200092 0.5 -0.29581001401
          -1.8758599758 0.5 -0.063933096826 -1.8656400442 0.28522598743 -0.2969610095
          1.7191100121 -0.2926889956 0.013918399811 1.5954600573 -0.5 -0.26120200753
          1.673140049 -0.32074698806 -0.32187500596 1.5000799894 -0.33221799135 -0.20392900705
          4.039850235 -0.20272299647 0.21478900313 4.1275501251 -0.15113399923 0.5
          4.2311301231 -0.28602001071 0.30712598562 4.0639600754 -0.30339500308 0.5
          2.8023600578 -0.042083900422 0.5 2.5668699741 -0.11371900141 0.5
          2.6219000816 -0.015453300439 0.30282199383 2.5758199692 0.075252600014 0.5
          4.501060009 0.27867999673 -0.21826599538 4.6908898354 0.5 -0.18460099399
          4.5407099724 0.5 -0.4572699964 4.7633600235 0.5 -0.40220698714
          4.2944598198 0.20695400238 -0.17472800612 4.5567698479 0.040265500546 -0.029345599934
          4.501060009 0.27867999673 -0.21826599538 4.4943199158 0.06769169867 -0.29010298848
          2.4395799637 -0.026134699583 0.038382198662 2.4389500618 -0.2577829957 -0.080456696451
          2.4458899498 -0.25059598684 0.23923400044 2.6354598999 -0.29880100489 0.010485099629
          -3.0836999416 0.5 0.28708401322 -3.138119936 0.5 0.48728901148
          -2.8708798885 0.5 0.40537801385 -2.9205000401 0.31499001384 0.5
          -0.020521700382 0.27518200874 -0.3097819984 -0.18946300447 0.17974199355 -0.1773750037
          -0.25742098689 0.29623898864 -0.3442530036 -0.30496299267 0.34233599901 -0.13862299919
          0.26355600357 -0.45382601023 0.5 0.37961798906 -0.27483201027 0.3045360148
          0.25332000852 -0.5 0.31911799312 0.44613900781 -0.5 0.42994099855
          -2.6483700275 0.13034400344 -0.5 -2.8458900452 0.23675900698 -0.5
          -2.6168899536 0.31174701452 -0.5 -2.8308899403 0.31933999062 -0.31058201194
          4.2311301231 -0.28602001071 0.30712598562 4.4824900627 -0.2778429985 0.28902798891
          4.296959877 -0.5 0.12259899825 4.34815979 -0.5 0.30085599422
          2.94404006 -0.24824899435 0.048307999969 2.9201900959 0.0039753098972 -0.016150400043
          2.9692099094 -0.18215200305 0.27709600329 2.7103700638 -0.17533199489 0.17696000636
          2.9692099094 -0.18215200305 0.27709600329 2.9353599548 0.054025001824 0.25657498837
          3.0548899174 -0.0057386700064 0.5 2.8023600578 -0.042083900422 0.5
          3.92689991 -0.25916099548 -0.5 3.9538800716 -0.19349299371 -0.21224999428
          4.0018801689 -0.5 -0.21358500421 3.7846400738 -0.3112359941 -0.2879639864
          0.71180897951 0.31379199028 -0.019653400406 0.56476098299 0.5 -0.044713400304
          0.58461797237 0.18660899997 -0.17640599608 0.70714598894 0.5 -0.22382299602
          0.19322299957 -0.078569203615 -0.5 0.3679780066 0.042948998511 -0.26218301058
          0.38934001327 0.21350599825 -0.5 0.39225000143 -0.090401999652 -0.5
          -1.0791499615 0.061705000699 0.5 -1.1438100338 0.013993400149 0.21154500544
          -0.93832302094 -0.045258000493 0.24930199981 -1.1475800276 0.23044300079 0.22876000404
          2.2014501095 -0.17346900702 -0.18166600168 2.1815600395 -0.001020470052 -0.32536798716
          2.2094399929 -0.21062499285 -0.5 2.3120000362 -0.058240499347 -0.5
          1.391010046 -0.5 -0.2258079946 1.2955499887 -0.5 -0.41003099084
          1.3746500015 -0.33837598562 -0.5 1.3097499609 -0.32079198956 -0.30054301023
          1.298789978 -0.15092399716 0.16408100724 1.1665500402 -0.30232200027 0.032807700336
          1.1263699532 -0.31314399838 0.27022001147 1.3733700514 -0.33255699277 0.11544699967
          3.1743099689 -0.022352099419 0.31030499935 3.1743900776 -0.18350000679 0.1536089927
          2.9692099094 -0.18215200305 0.27709600329 3.2869899273 -0.28170898557 0.32561299205
          -2.9755399227 0.12714900076 -0.1661580056 -3.0582199097 0.31288200617 -0.29153999686
          -3.0080699921 0.29238799214 0.028416100889 -3.2586500645 0.20448499918 -0.21992500126
          3.6606800556 0.057222399861 0.047008000314 3.6032299995 -0.0550327003 0.29886201024
          3.7557299137 -0.14269599319 0.12685400248 3.4722599983 -0.22174499929 0.20733100176
          3.5110299587 -0.5 0.32628598809 3.2869899273 -0.28170898557 0.32561299205
          3.4452700615 -0.38378500938 0.5 3.3018300533 -0.5 0.38916900754
          -4.7226400375 0.0055706598796 0.5 -4.8052501678 -0.030253799632 0.27854898572
          -4.8773698807 0.1690479964 0.5 -5 0.07584580034 0.38386198878
          -4.2389798164 0.42935600877 -0.5 -4.0616898537 0.31015700102 -0.5
          -4.0830402374 0.30948498845 -0.29728299379 -4.0648899078 0.5 -0.42759600282
          -4.1479997635 0.1524810046 0.18773500621 -4.1556100845 0.12476799637 0.5
          -3.971339941 0.069716103375 0.5 -4.0238199234 -0.033451199532 0.28527000546
          -3.6195299625 0.18837699294 0.1758890003 -3.353219986 0.018101999536 -0.0069937198423
          -3.5974299908 0.015700999647 0.0042460002005 -3.40102005 0.049610700458 0.26974400878
          1.0786999464 -0.15874500573 -0.5 1.139539957 -0.036767199636 -0.30390501022
          0.93065899611 -0.030296299607 -0.23989999294 1.0077899694 0.013961300254 -0.5
          4.4943199158 0.06769169867 -0.29010298848 4.7124700546 0.20787400007 -0.21475000679
          4.501060009 0.27867999673 -0.21826599538 4.4979701042 0.25243699551 -0.5
          2.750590086 -0.5 -0.077522300184 2.6354598999 -0.29880100489 0.010485099629
          2.7222399712 -0.5 0.087961599231 2.5833399296 -0.5 -0.06280399859
          -3.1703898907 -0.28369298577 0.029881799594 -3.2333400249 -0.5 0.24993300438
          -3.1171200275 -0.32041800022 0.23436300457 -3.0793800354 -0.5 0.028451299295
          1.3350299597 0.5 0.26320800185 1.2676099539 0.18327300251 0.17430500686
          1.4897999763 0.29271999002 0.26752799749 1.4356100559 0.30725300312 0.014958400279
          2.4390499592 -0.057027101517 -0.2462310046 2.4481799603 0.24948500097 0.0013240700355
          2.6477799416 0.16645799577 -0.17383100092 2.4395799637 -0.026134699583 0.038382198662
          -2.6367399693 0.26534798741 0.078260503709 -2.8269600868 0.33847901225 0.099728599191
          -2.7599999905 0.5 0.28317898512 -2.568860054 0.328433007 0.33221000433
          -1.8656400442 0.28522598743 -0.2969610095 -1.8110899925 0.48072299361 -0.5
          -1.9338200092 0.5 -0.29581001401 -1.9816099405 0.27960699797 -0.5
          4.7696099281 -0.016697799787 -0.29300200939 4.7783799171 -0.058915100992 0.015639599413
          4.5178999901 -0.10659900308 -0.17478400469 4.5567698479 0.040265500546 -0.029345599934
          0.80673497915 0.05526150018 -0.040332399309 1.0260499716 0.011771400459 0.016185000539
          0.93065899611 -0.030296299607 -0.23989999294 0.96319800615 -0.25574100018 -0.086030602455
          -4.697619915 0.5 -0.22214700282 -4.7795901299 0.30410701036 -0.28243198991
          -4.6261501312 0.17262099683 -0.1935839951 -4.500120163 0.30916801095 -0.29975399375
          -1.6403199434 -0.1704210043 -0.5 -1.670410037 -0.23073199391 -0.21768200397
          -1.6529099941 -0.5 -0.32333600521 -1.8430000544 -0.33087998629 -0.29164901376
          -3.2586500645 0.20448499918 -0.21992500126 -2.9755399227 0.12714900076 -0.1661580056
          -3.0681700706 -0.022411899641 -0.31216698885 -3.2168300152 0.015511999838 -0.16400499642
          2.7578799725 -0.10127799958 -0.5 2.6700599194 -0.18108099699 -0.17258299887
          2.7792201042 -0.32771399617 -0.28562399745 2.5818200111 -0.276602 -0.5
          3.1571199894 0.5 0.16706800461 3.2171900272 0.5 -0.054951798171
          3.095690012 0.30450299382 0.0079884901643 3.3437099457 0.5 0.098416596651
          -3.6415400505 0.18903900683 -0.16241000593 -3.8034300804 0.010254199617 -0.24826699495
          -3.5893199444 0.032997198403 -0.29434099793 -3.7156999111 0.29170098901 -0.33228498697
          -1.3727099895 0.30601900816 0.28291600943 -1.45697999 0.29096999764 0.5
          -1.241230011 0.18273699284 0.5 -1.29381001 0.12503300607 0.31571400166
          -1.0791499615 0.061705000699 0.5 -1.29381001 0.12503300607 0.31571400166
          -1.2071299553 -0.056219801307 0.5 -1.1438100338 0.013993400149 0.21154500544
          -0.93913400173 -0.20071199536 -0.20192199945 -1.1352299452 -0.30921301246 -0.27610599995
          -1.1855100393 -0.25224798918 -0.0140108997 -1.0007799864 -0.5 -0.1113319993
          -0.93913400173 -0.20071199536 -0.20192199945 -1.1352299452 -0.30921301246 -0.27610599995
          -1.0007799864 -0.5 -0.1113319993 -0.86342602968 -0.5 -0.2539960146
          -1.29381001 0.12503300607 0.31571400166 -1.4028999805 0.13422000408 0.12791000307
          -1.334980011 -0.066682696342 0.27562999725 -1.1438100338 0.013993400149 0.21154500544
          -3.1584899426 -0.5 -0.16631600261 -3.1692500114 -0.17956000566 -0.18042400479
          -3.1703898907 -0.28369298577 0.029881799594 -3.4054200649 -0.24873800576 -0.029902800918
          4.3918099403 0.5 0.31080400944 4.2713398933 0.33074501157 0.5
          4.4985699654 0.29182401299 0.2750479877 4.1333699226 0.29578199983 0.28484800458
          -0.47644600272 0.21734400094 -0.22011299431 -0.60728102922 0.5 -0.3106789887
          -0.57590299845 0.34252899885 -0.5 -0.41667899489 0.5 -0.48140498996
          4.0096001625 0.5 -0.34201300144 4.1033101082 0.5 -0.16609400511
          4.1898999214 0.32223001122 -0.31539100409 4.0157899857 0.23598599434 -0.23627699912
          1.7353800535 0.5 -0.37083101273 1.5854899883 0.5 -0.19192999601
          1.8845000267 0.5 -0.10376700014 1.6638499498 0.32388100028 -0.30573499203
          3.4012000561 -0.17302200198 0.5 3.1408400536 -0.26990801096 0.5
          3.2869899273 -0.28170898557 0.32561299205 3.1743099689 -0.022352099419 0.31030499935
          -1.728489995 -0.2819840014 0.029070099816 -1.9215400219 -0.19377499819 0.17684599757
          -1.7268799543 -0.26261898875 0.29539200664 -1.8138200045 -0.5 0.13895599544
          -4.1423802376 -0.18350799382 0.11192400008 -4.0997099876 -0.04042249918 -0.065122202039
          -4.2342700958 -0.2943969965 -0.036790598184 -4.022600174 -0.31765198708 -0.031538199633
          3.730809927 0.29602000117 0.3136009872 3.5264201164 0.5 0.31256499887
          3.495059967 0.19994699955 0.5 3.5617899895 0.20520099998 0.20095099509
          -3.119879961 0.056279499084 0.0078261103481 -2.8607199192 0.16806200147 0.1988620013
          -3.0034298897 -0.12146800011 0.11256500334 -2.9183399677 -0.016215600073 0.29276099801
          1.4897999763 0.29271999002 0.26752799749 1.4934600592 0.40915301442 0.5
          1.688740015 0.32006499171 0.5 1.6280800104 0.11417599767 0.5
          -0.92035800219 0.31782001257 0.33497199416 -0.71377199888 0.30195298791 0.28811401129
          -0.77020597458 0.5 0.12030699849 -0.86464500427 0.18405400217 0.1796399951
          4.0886101723 0.063145399094 0.2613709867 3.9662399292 0.2043710053 0.5
          4.1193199158 0.19485099614 0.5 3.993170023 -0.055373799056 0.5
          1.8512899876 -0.25720700622 0.29749301076 1.6352499723 -0.5 0.19289499521
          1.8255000114 -0.5 0.10807599872 1.7191100121 -0.2926889956 0.013918399811
          -4.1763601303 0.12014900148 -0.5 -4.3405499458 0.17424100637 -0.5
          -4.4012899399 0.03873860091 -0.27101901174 -4.3489499092 -0.10022199899 -0.5
          1.3350299597 0.5 0.26320800185 1.4897999763 0.29271999002 0.26752799749
          1.626060009 0.5 0.34106299281 1.5800199509 0.5 0.11975900084
          -1.2810100317 -0.16105599701 -0.5 -1.3341200352 0.058667398989 -0.30476099253
          -1.3918299675 -0.029553499073 -0.5 -1.1455899477 -0.027385700494 -0.5
          -2.4248900414 -0.10110799968 -0.5 -2.2611498833 -0.21604500711 -0.31563100219
          -2.4834799767 -0.27802801132 -0.5 -2.4208400249 -0.17098300159 -0.17608100176
          0.89871001244 -0.21273000538 0.19672900438 0.75085902214 -0.045475300401 0.28253901005
          0.87731397152 0.049460299313 0.15210199356 1.0831899643 -0.026730500162 0.28337299824
          -1.2071399689 0.32934400439 -0.5 -1.3414299488 0.2976360023 -0.30167099833
          -1.2034000158 0.121028997 -0.5 -1.3366099596 0.20833599567 -0.5
          4.1314902306 0.23748099804 -0.5 4.1566100121 -0.01251959987 -0.28246301413
          4.2942700386 0.099316298962 -0.5 4.1330800056 -0.018558099866 -0.5
          -0.96304500103 0.042934101075 -0.20367699862 -0.93913400173 -0.20071199536 -0.20192199945
          -0.81901800632 -0.064964897931 -0.069114297628 -0.7856760025 -0.061230801046 -0.29652500153
          -0.1279810071 -0.26361098886 -0.5 -0.11357299984 -0.14485199749 -0.33142700791
          0.084536299109 -0.24571800232 -0.5 0.02034159936 -0.29206499457 -0.27554398775
          2.4481799603 0.24948500097 0.0013240700355 2.2155299187 0.29384601116 -0.016047000885
          2.2021598816 0.01178739965 -0.018270699307 2.2796599865 0.15909999609 -0.20078100264
          2.3315200806 0.075631901622 0.5 2.0954899788 -0.062455501407 0.5
          2.2194900513 -0.0036427800078 0.3248629868 2.1093399525 0.13601699471 0.5
          -3.3607699871 0.21685799956 -0.5 -3.2381598949 0.5 -0.3880290091
          -3.1714200974 0.28492799401 -0.5 -3.2586500645 0.20448499918 -0.21992500126
          4.1898999214 0.32223001122 -0.31539100409 4.1566100121 -0.01251959987 -0.28246301413
          4.1314902306 0.23748099804 -0.5 4.0157899857 0.23598599434 -0.23627699912
          -2.8308899403 0.31933999062 -0.31058201194 -2.9230499268 0.5 -0.3529239893
          -2.8458900452 0.23675900698 -0.5 -2.7123599052 0.5 -0.38375499845
          -1.670410037 -0.23073199391 -0.21768200397 -1.6529099941 -0.5 -0.32333600521
          -1.5899200439 -0.5 -0.14776800573 -1.4707000256 -0.5 -0.29291000962
          -0.46267700195 -0.020818000659 -0.27643701434 -0.59533298016 -0.13490399718 -0.5
          -0.46434998512 -0.23358699679 -0.5 -0.55288797617 0.023504899815 -0.5
          5 -0.025442499667 -0.21136300266 5 -0.14510799944 -0.050927400589
          4.6962199211 -0.21809899807 -0.17522199452 4.7783799171 -0.058915100992 0.015639599413
          -3.6415400505 0.18903900683 -0.16241000593 -3.822799921 0.5 -0.16184200346
          -3.7612600327 0.27116200328 0.015408799984 -3.8989500999 0.24744200706 -0.23554000258
          -4.1503901482 0.15257999301 -0.18268600106 -4.0997099876 -0.04042249918 -0.065122202039
          -3.9890100956 0.24387900531 0.0062287501059 -3.8818199635 0.0094203203917 -0.0044903801754
          -2.8274400234 0.051215600222 -0.3225030005 -2.9752700329 0.12661999464 -0.5
          -2.8458900452 0.23675900698 -0.5 -2.8308899403 0.31933999062 -0.31058201194
          4.1333699226 0.29578199983 0.28484800458 3.9557700157 0.35738798976 0.5
          4.1271901131 0.47496300936 0.5 4.1193199158 0.19485099614 0.5
          1.139539957 -0.036767199636 -0.30390501022 0.96319800615 -0.25574100018 -0.086030602455
          0.93065899611 -0.030296299607 -0.23989999294 1.2388900518 -0.17473700643 -0.16655999422
          4.0595002174 -0.45859000087 -0.5 4.1566100121 -0.27463600039 -0.28568801284
          4.0018801689 -0.5 -0.21358500421 3.92689991 -0.25916099548 -0.5
          -0.66166800261 -0.5 0.21156099439 -0.63264602423 -0.32936599851 0.064718000591
          -0.87598198652 -0.27951401472 0.27214699984 -0.91965401173 -0.5 0.069327197969
          3.0071001053 0.30889099836 0.30772000551 3.1743099689 -0.022352099419 0.31030499935
          3.0548899174 -0.0057386700064 0.5 3.1938300133 0.27075499296 0.5
          -1.3444800377 -0.30236798525 0.28137201071 -1.5214099884 -0.5 0.34752699733
          -1.2460000515 -0.40172600746 0.5 -1.2431999445 -0.5 0.20165300369
          1.7197300196 -0.0059337001294 -0.015229499899 1.4679900408 -0.23194299638 -0.032342601568
          1.6971999407 -0.18535399437 -0.17042499781 1.4914300442 0.0569607988 -0.04182960093
          2.7243199348 -0.5 0.48583400249 2.797960043 -0.29616799951 0.32714900374
          2.9103798866 -0.24695399404 0.5 2.6795399189 -0.26569700241 0.5
          2.8141000271 0.33296000957 0.21601100266 2.6206200123 0.32416799664 0.30228099227
          2.6889400482 0.16072399914 0.18579299748 2.6540100574 0.30316799879 0.029222900048
          2.9353599548 0.054025001824 0.25657498837 3.1743099689 -0.022352099419 0.31030499935
          3.0548899174 -0.0057386700064 0.5 3.0071001053 0.30889099836 0.30772000551
          -4.5665698051 0.35982298851 0.5 -4.4165802002 0.22745400667 0.23878499866
          -4.5152201653 0.17846100032 0.5 -4.2659602165 0.28228399158 0.5
          -1.8413699865 0.28546500206 0.5 -1.6647800207 0.24374599755 0.22540199757
          -1.6577099562 0.12280199677 0.5 -1.7108399868 0.45766401291 0.5
          1.4914300442 0.0569607988 -0.04182960093 1.6074999571 0.030789300799 -0.26509699225
          1.6971999407 -0.18535399437 -0.17042499781 1.7197300196 -0.0059337001294 -0.015229499899
          1.8518699408 -0.5 0.28856000304 1.6352499723 -0.5 0.19289499521
          1.8255000114 -0.5 0.10807599872 1.8512899876 -0.25720700622 0.29749301076
          3.3688399792 0.28460401297 0.022468499839 3.4346001148 0.010584499687 0.0013051299611
          3.4734098911 0.21108800173 -0.2205349952 3.1808700562 0.17408800125 -0.17278499901
          1.3415499926 0.046351000667 -0.2966940105 1.5757000446 -0.01348510012 -0.5
          1.3222500086 0.19783599675 -0.5 1.2096600533 0.029559800401 -0.5
          -1.0519599915 0.24375100434 -0.5 -1.0471099615 0.090339496732 -0.5
          -0.92764699459 0.27740699053 -0.26456698775 -0.89940702915 0.048585001379 -0.5
          1.5800199509 0.5 0.11975900084 1.626060009 0.5 0.34106299281
          1.8424299955 0.5 0.20660300553 1.818590045 0.3155849874 0.32314199209
          0.96319800615 -0.25574100018 -0.086030602455 0.89871001244 -0.21273000538 0.19672900438
          0.76386100054 -0.10622999817 0.089437901974 1.0750000477 -0.14948399365 0.12495800108
          -3.1328499317 0.5 -0.05846099928 -3.2857298851 0.5 -0.18894700706
          -3.3652899265 0.29221200943 0.018539199606 -3.2586500645 0.20448499918 -0.21992500126
          -2.2191998959 0.31082698703 0.26025301218 -2.1791601181 0.066247500479 0.26825898886
          -2.1011199951 0.16092300415 0.5 -2.0332100391 0.28143399954 0.34608799219
          -2.2191998959 0.31082698703 0.26025301218 -2.1791601181 0.066247500479 0.26825898886
          -2.0332100391 0.28143399954 0.34608799219 -1.9560199976 0.18910500407 0.17773799598
          -3.2899799347 -0.19551900029 0.21153800189 -3.353219986 0.018101999536 -0.0069937198423
          -3.4054200649 -0.24873800576 -0.029902800918 -3.1703898907 -0.28369298577 0.029881799594
          -0.29023098946 -0.5 -0.36567699909 -0.47420999408 -0.29338499904 -0.29220598936
          -0.29398798943 -0.19200000167 -0.2282319963 -0.30116099119 -0.5 -0.18737800419
          3.6361598969 -0.5 0.14722600579 3.4722599983 -0.22174499929 0.20733100176
          3.424779892 -0.5 0.16588500142 3.6328399181 -0.30484598875 0.056098300964
          -4.4078397751 0.5 -0.27026000619 -4.514550209 0.5 -0.045017201453
          -4.2751197815 0.5 0.02419850044 -4.3864398003 0.25989100337 -0.089046299458
          -2.6367399693 0.26534798741 0.078260503709 -2.8607199192 0.16806200147 0.1988620013
          -2.8269600868 0.33847901225 0.099728599191 -2.568860054 0.328433007 0.33221000433
          -4.1248002052 0.32227998972 0.33130601048 -4.0860900879 0.5 0.47527000308
          -3.8746600151 0.5 0.47712299228 -3.9800200462 0.29855400324 0.5
          -3.8989500999 0.24744200706 -0.23554000258 -4.0830402374 0.30948498845 -0.29728299379
          -3.9890100956 0.24387900531 0.0062287501059 -4.1503901482 0.15257999301 -0.18268600106
          2.9862799644 0.5 0.48882699013 2.9283499718 0.5 0.14330999553
          3.0071001053 0.30889099836 0.30772000551 3.1571199894 0.5 0.16706800461
          -4.0987300873 -0.5 0.24074499309 -4.0945601463 -0.28051298857 0.31798601151
          -4.1482901573 -0.5 0.45363500714 -4.2715802193 -0.32873600721 0.20494799316
          -1.8168400526 0.14203999937 0.32622399926 -2.0332100391 0.28143399954 0.34608799219
          -1.9165099859 0.082864999771 0.5 -1.9649800062 -0.0049698902294 0.29592001438
          -4.2342700958 -0.2943969965 -0.036790598184 -4.3976202011 -0.16255900264 0.25912800431
          -4.411260128 -0.00020594299713 -0.0010824199999 -4.1423802376 -0.18350799382 0.11192400008
          3.4346001148 0.010584499687 0.0013051299611 3.4734098911 0.21108800173 -0.2205349952
          3.6606800556 0.057222399861 0.047008000314 3.6093900204 0.31306898594 -0.027008600533
          -4.2342700958 -0.2943969965 -0.036790598184 -4.0541300774 -0.5 -0.16820600629
          -4.2746400833 -0.5 -0.25492700934 -4.2580599785 -0.5 -0.032561998814
          3.2362499237 -0.1912920028 -0.17273800075 3.120470047 -0.021967599168 -0.27757799625
          3.2644200325 -0.026787700132 -0.5 3.4302000999 -0.042014900595 -0.25968700647
          -3.353219986 0.018101999536 -0.0069937198423 -3.387419939 -0.020452000201 -0.26496699452
          -3.4054200649 -0.24873800576 -0.029902800918 -3.2168300152 0.015511999838 -0.16400499642
          3.4346001148 0.010584499687 0.0013051299611 3.6606800556 0.057222399861 0.047008000314
          3.7557299137 -0.14269599319 0.12685400248 3.4722599983 -0.22174499929 0.20733100176
          2.8473100662 0.22374899685 0.5 3.0071001053 0.30889099836 0.30772000551
          3.0548899174 -0.0057386700064 0.5 3.1938300133 0.27075499296 0.5
          1.5281399488 0.5 -0.39227798581 1.5854899883 0.5 -0.19192999601
          1.7353800535 0.5 -0.37083101273 1.6638499498 0.32388100028 -0.30573499203
          3.1624600887 -0.015569499694 -0.02179059945 3.120470047 -0.021967599168 -0.27757799625
          3.2362499237 -0.1912920028 -0.17273800075 3.4302000999 -0.042014900595 -0.25968700647
          -4.5752401352 0.31679400802 -0.5 -4.5744199753 0.044033199549 -0.5
          -4.500120163 0.30916801095 -0.29975399375 -4.3405499458 0.17424100637 -0.5
          3.5255100727 0.5 -0.16535499692 3.4734098911 0.21108800173 -0.2205349952
          3.2946200371 0.5 -0.20856200159 3.3688399792 0.28460401297 0.022468499839
          1.6999000311 0.18993200362 -0.5 1.6638499498 0.32388100028 -0.30573499203
          1.6074999571 0.030789300799 -0.26509699225 1.4860899448 0.23913800716 -0.2658199966
          0.58827602863 -0.023083500564 0.03204099834 0.46921399236 0.2665579915 0.056172598153
          0.3682860136 0.00067014299566 0.0082637900487 0.58461797237 0.18660899997 -0.17640599608
          -2.6997199059 -0.29153099656 -0.5 -2.8245999813 -0.5 -0.29598200321
          -2.6132099628 -0.29757499695 -0.26779401302 -2.704449892 -0.5 -0.44117501378
          4.039850235 -0.20272299647 0.21478900313 4.0886101723 0.063145399094 0.2613709867
          4.2926101685 0.022265100852 0.30176800489 4.1275501251 -0.15113399923 0.5
          -0.012120299973 -0.32062399387 0.28174200654 -0.17885400355 -0.17817400396 0.19088800251
          -0.29698100686 -0.33138298988 0.28727200627 -0.035155199468 -0.5 0.074470199645
          -3.119879961 0.056279499084 0.0078261103481 -3.353219986 0.018101999536 -0.0069937198423
          -3.2899799347 -0.19551900029 0.21153800189 -3.1703898907 -0.28369298577 0.029881799594
          -1.7690800428 0.27011099458 -0.5 -1.8656400442 0.28522598743 -0.2969610095
          -1.7309900522 0.022700900212 -0.2696749866 -1.8528900146 0.074574902654 -0.5
          -3.6195299625 0.18837699294 0.1758890003 -3.776599884 -0.0024208100513 0.27819898725
          -3.5796399117 -0.036828301847 0.30965799093 -3.5974299908 0.015700999647 0.0042460002005
          -1.5013799667 0.5 0.29929700494 -1.3727099895 0.30601900816 0.28291600943
          -1.5486299992 0.27752000093 0.017110800371 -1.6647800207 0.24374599755 0.22540199757
          -1.4028999805 0.13422000408 0.12791000307 -1.2951300144 0.045372098684 -0.065485596657
          -1.3262499571 0.2814899981 -0.050565201789 -1.4892100096 0.17613700032 -0.19808200002
          -1.2537200451 0.5 -0.48933500051 -1.4210100174 0.5 -0.29471999407
          -1.1828099489 0.5 -0.19919799268 -1.3414299488 0.2976360023 -0.30167099833
          0.53568398952 -0.32191199064 0.5 0.26355600357 -0.45382601023 0.5
          0.44613900781 -0.5 0.42994099855 0.37961798906 -0.27483201027 0.3045360148
          -4.2580599785 -0.5 -0.032561998814 -4.3720297813 -0.5 0.12119200081
          -4.2342700958 -0.2943969965 -0.036790598184 -4.2715802193 -0.32873600721 0.20494799316
          4.1160001755 -0.25597798824 -0.023964699358 3.8334798813 -0.29951399565 -0.035472199321
          3.9352300167 -0.034624699503 0.14412599802 4.039850235 -0.20272299647 0.21478900313
          -0.57590299845 0.34252899885 -0.5 -0.68140697479 0.28639298677 -0.28938999772
          -0.75955200195 0.2530399859 -0.5 -0.72934299707 0.47740399837 -0.5
          4.4824900627 -0.2778429985 0.28902798891 4.4160299301 -0.33252999187 0.5
          4.5328397751 -0.5 0.28382301331 4.34815979 -0.5 0.30085599422
          4.5424098969 -0.083453699946 0.5 4.5015702248 0.045086801052 0.27461698651
          4.4824900627 -0.2778429985 0.28902798891 4.6710700989 -0.19623799622 0.19057400525
          4.3579602242 -0.5 -0.20988300443 4.3278198242 -0.19421100616 -0.1541839987
          4.5181698799 -0.25569599867 -0.00080205698032 4.3140602112 -0.30338901281 0.040695600212
          0.59722298384 -0.5 0.24278099835 0.37961798906 -0.27483201027 0.3045360148
          0.7291790247 -0.29900100827 0.29153800011 0.53568398952 -0.32191199064 0.5
          -2.8798100948 0.024562800303 0.5 -2.7625899315 -0.27350199223 0.5
          -2.5157299042 -0.098369702697 0.5 -2.7145900726 -0.082542397082 0.279302001
          -2.3618400097 -0.32881900668 0.3184300065 -2.2719900608 -0.32766199112 0.080448098481
          -2.4806699753 -0.5 0.25502499938 -2.268130064 -0.5 0.23155200481
          4.2686200142 -0.36589500308 -0.5 4.4887499809 -0.30371600389 -0.5
          4.4281401634 -0.5 -0.37787801027 4.4999699593 -0.30107301474 -0.267922014
          -1.7309900522 0.022700900212 -0.2696749866 -1.9522600174 -0.011583000422 -0.29229301214
          -1.730610013 -0.00066968100145 -0.0049977498129 -1.9544999599 -0.19884000719 -0.16746899486
          -2.8101699352 -0.5 0.047830801457 -2.9412100315 -0.31262499094 -0.011466300115
          -2.9510200024 -0.5 -0.15621200204 -2.7003099918 -0.5 -0.15431599319
          0.89347398281 0.5 -0.40201699734 1.0351999998 0.5 -0.23184999824
          0.73280501366 0.2939440012 -0.30173701048 0.70714598894 0.5 -0.22382299602
          -0.63264602423 -0.32936599851 0.064718000591 -0.74051898718 -0.13983599842 0.1276730001
          -0.87598198652 -0.27951401472 0.27214699984 -0.94314199686 -0.25431698561 0.040656600147
          -2.187210083 -0.061865199357 0.039609499276 -2.2719900608 -0.32766199112 0.080448098481
          -2.4208400249 -0.17098300159 -0.17608100176 -2.4605801105 -0.31329700351 0.0017525800504
          -0.21006199718 -0.066769301891 -0.5 -0.46267700195 -0.020818000659 -0.27643701434
          -0.46434998512 -0.23358699679 -0.5 -0.36137199402 0.054711200297 -0.5
          3.1408400536 -0.26990801096 0.5 3.1743099689 -0.022352099419 0.31030499935
          2.9692099094 -0.18215200305 0.27709600329 3.2869899273 -0.28170898557 0.32561299205
          4.737279892 -0.20036800206 -0.5 4.6962199211 -0.21809899807 -0.17522199452
          4.7696099281 -0.016697799787 -0.29300200939 4.8028302193 -0.29806599021 -0.33157899976
          1.3224300146 0.5 -0.35919898748 1.4860899448 0.23913800716 -0.2658199966
          1.3222500086 0.19783599675 -0.5 1.2041200399 0.21308499575 -0.18568199873
          -5 0.15884299576 0.21330599487 -5 0.32793700695 0.27663400769
          -4.8773698807 0.1690479964 0.5 -5 0.07584580034 0.38386198878
          4.6631398201 0.058381199837 -0.5 4.7124700546 0.20787400007 -0.21475000679
          4.8905501366 0.13403299451 -0.5 4.7696099281 -0.016697799787 -0.29300200939
          -0.29334101081 0.37132000923 0.5 -0.38609901071 0.25310799479 0.3300819993
          -0.16925099492 0.29148900509 0.27573001385 -0.31256601214 0.5 0.24124599993
          -4.4446802139 0.5 0.46802300215 -4.261590004 0.5 0.28367200494
          -4.4165802002 0.22745400667 0.23878499866 -4.2659602165 0.28228399158 0.5
          -4.8396000862 0.080449603498 -0.5 -4.9698600769 0.27387401462 -0.5
          -4.7695999146 0.26816898584 -0.5 -5 0.09418129921 -0.34129801393
          -3.0080699921 0.29238799214 0.028416100889 -3.177740097 0.19153399765 0.19352599978
          -3.012720108 0.29143700004 0.30083501339 -2.8607199192 0.16806200147 0.1988620013
          -3.177740097 0.19153399765 0.19352599978 -3.012720108 0.29143700004 0.30083501339
          -3.1326100826 -0.026751099154 0.30142500997 -3.1307299137 0.1212079972 0.5
          0.78195297718 -0.29943698645 0.031285099685 0.70115399361 -0.13068500161 -0.12672199309
          0.76386100054 -0.10622999817 0.089437901974 0.57815998793 -0.31825500727 -0.050177000463
          1.6828099489 -0.15067499876 0.17043499649 1.4679900408 -0.23194299638 -0.032342601568
          1.7197300196 -0.0059337001294 -0.015229499899 1.4914300442 0.0569607988 -0.04182960093
          0.82831698656 0.016366999596 -0.5 0.71499300003 0.033225100487 -0.28708100319
          0.82974797487 0.27198299766 -0.5 0.93949502707 0.1572739929 -0.5
          4.7109298706 -0.5 0.037262801081 4.7140798569 -0.5 -0.1463650018
          4.9067702293 -0.5 -0.13576300442 4.814139843 -0.29069000483 0.014058699831
          -3.4394900799 0.2320100069 0.5 -3.40102005 0.049610700458 0.26974400878
          -3.595760107 0.14106500149 0.5 -3.315500021 0.091922298074 0.5
          3.6228199005 0.064896397293 -0.30187800527 3.4346001148 0.010584499687 0.0013051299611
          3.6606800556 0.057222399861 0.047008000314 3.6450901031 -0.17131699622 -0.19211299717
          2.8429698944 0.28180000186 -0.27394500375 2.8604700565 0.28147599101 -0.024887500331
          3.0563700199 0.30440598726 -0.29042899609 2.9765999317 0.15742999315 -0.14321500063
          1.2285900116 0.5 1.5277299099e-05 1.3350299597 0.5 0.26320800185
          1.142539978 0.300906986 0.29215401411 1.0695999861 0.5 0.21742899716
          -1.2951300144 0.045372098684 -0.065485596657 -1.4028999805 0.13422000408 0.12791000307
          -1.1475800276 0.23044300079 0.22876000404 -1.1438100338 0.013993400149 0.21154500544
          -4.1423802376 -0.18350799382 0.11192400008 -4.2715802193 -0.32873600721 0.20494799316
          -4.022600174 -0.31765198708 -0.031538199633 -4.2342700958 -0.2943969965 -0.036790598184
          3.9115200043 0.5 0.15832599998 4.0785198212 0.2688550055 0.022481000051
          4.0968198776 0.5 0.16808399558 4.0127902031 0.5 -0.00039253599243
          -1.0002299547 0.5 0.26042699814 -1.1475800276 0.23044300079 0.22876000404
          -1.174579978 0.41473001242 0.5 -0.92035800219 0.31782001257 0.33497199416
          -4.1164798737 0.5 -0.23297099769 -4.0830402374 0.30948498845 -0.29728299379
          -3.8989500999 0.24744200706 -0.23554000258 -3.822799921 0.5 -0.16184200346
          -1.637830019 -0.34564900398 0.5 -1.7268799543 -0.26261898875 0.29539200664
          -1.8273899555 -0.5 0.4705440104 -1.7145800591 -0.5 0.30908799171
          3.3886699677 0.01943529956 0.25713300705 3.4722599983 -0.22174499929 0.20733100176
          3.4346001148 0.010584499687 0.0013051299611 3.1743900776 -0.18350000679 0.1536089927
          3.7557299137 -0.14269599319 0.12685400248 3.8265800476 -0.00065459497273 0.32086899877
          3.678839922 -0.28315201402 0.29635599256 3.6032299995 -0.0550327003 0.29886201024
          1.2676099539 0.18327300251 0.17430500686 1.2891700268 0.025188799948 0.31899100542
          1.4909499884 0.035039100796 0.2443370074 1.298789978 -0.15092399716 0.16408100724
          -4.0997099876 -0.04042249918 -0.065122202039 -4.1479997635 0.1524810046 0.18773500621
          -4.0238199234 -0.033451199532 0.28527000546 -4.1423802376 -0.18350799382 0.11192400008
          3.4346001148 0.010584499687 0.0013051299611 3.6032299995 -0.0550327003 0.29886201024
          3.6606800556 0.057222399861 0.047008000314 3.4722599983 -0.22174499929 0.20733100176
          0.7291790247 -0.29900100827 0.29153800011 0.58512401581 -0.18639500439 0.18318599463
          0.76386100054 -0.10622999817 0.089437901974 0.75085902214 -0.045475300401 0.28253901005
          -1.1753100157 0.18597100675 -0.21642799675 -1.0471099615 0.090339496732 -0.5
          -1.1722400188 -0.078797601163 -0.24050499499 -0.96304500103 0.042934101075 -0.20367699862
          2.8023600578 -0.042083900422 0.5 2.6795399189 -0.26569700241 0.5
          2.797960043 -0.29616799951 0.32714900374 2.6219000816 -0.015453300439 0.30282199383
          4.4887499809 -0.30371600389 -0.5 4.8028302193 -0.29806599021 -0.33157899976
          4.6661100388 -0.5 -0.39997300506 4.4999699593 -0.30107301474 -0.267922014
          -3.2381598949 0.5 -0.3880290091 -3.0582199097 0.31288200617 -0.29153999686
          -3.2586500645 0.20448499918 -0.21992500126 -3.2857298851 0.5 -0.18894700706
          -0.11969800293 0.24129599333 0.5 0.057354498655 0.2768329978 0.30196899176
          0.16596199572 0.5 0.45811799169 -0.085543900728 0.5 0.4370740056
          0.89871001244 -0.21273000538 0.19672900438 0.95045101643 -0.36442101002 0.5
          0.92648899555 -0.5 0.31108599901 0.7291790247 -0.29900100827 0.29153800011
          2.2194900513 -0.0036427800078 0.3248629868 2.0954899788 -0.062455501407 0.5
          2.3315200806 0.075631901622 0.5 2.3842000961 -0.1629229933 0.5
          -1.1828099489 0.5 -0.19919799268 -1.3262499571 0.2814899981 -0.050565201789
          -1.0912200212 0.5 0.03137230128 -1.0172100067 0.25485399365 -0.020222399384
          2.4395799637 -0.026134699583 0.038382198662 2.6777200699 -0.0055014099926 -0.0048864497803
          2.4389500618 -0.2577829957 -0.080456696451 2.6354598999 -0.29880100489 0.010485099629
          2.4748399258 0.5 -0.20795799792 2.3991000652 0.5 0.11198899895
          2.6394400597 0.5 -0.0548616983 2.4481799603 0.24948500097 0.0013240700355
          -3.2168300152 0.015511999838 -0.16400499642 -3.0067799091 -0.070524998009 -0.1112980023
          -3.1692500114 -0.17956000566 -0.18042400479 -3.119879961 0.056279499084 0.0078261103481
          -0.6270070076 -0.18018999696 -0.18880400062 -0.62403798103 0.035430200398 0.037675399333
          -0.46267700195 -0.020818000659 -0.27643701434 -0.40286201239 -0.0046954802237 -0.0054140798748
          1.5281399488 0.5 -0.39227798581 1.4860899448 0.23913800716 -0.2658199966
          1.3762099743 0.5 -0.1532869935 1.5854899883 0.5 -0.19192999601
          -1.3521399498 -0.29692700505 -0.29181501269 -1.4115899801 -0.27296701074 -0.5
          -1.2810100317 -0.16105599701 -0.5 -1.5251499414 -0.076651901007 -0.31482899189
          1.6971999407 -0.18535399437 -0.17042499781 1.7917699814 -0.17960299551 -0.5
          1.8699899912 -0.30787700415 -0.26772201061 1.9453500509 -0.087545797229 -0.2573390007
          -2.1809399128 -0.24249899387 0.24300700426 -1.9215400219 -0.19377499819 0.17684599757
          -1.9649800062 -0.0049698902294 0.29592001438 -2.187210083 -0.061865199357 0.039609499276
          -4.697619915 0.5 -0.22214700282 -4.936150074 0.5 -0.080450102687
          -4.8486700058 0.5 0.11407999694 -4.765540123 0.29459398985 -0.015708299354
          -3.606400013 -0.5 0.29930099845 -3.7200200558 -0.5 0.14442199469
          -3.5598199368 -0.5 0.038439199328 -3.4786798954 -0.29719600081 0.28423199058
          2.8604700565 0.28147599101 -0.024887500331 2.6889400482 0.16072399914 0.18579299748
          2.6777200699 -0.0055014099926 -0.0048864497803 2.6540100574 0.30316799879 0.029222900048
          -3.1692500114 -0.17956000566 -0.18042400479 -3.119879961 0.056279499084 0.0078261103481
          -3.353219986 0.018101999536 -0.0069937198423 -3.2168300152 0.015511999838 -0.16400499642
          -4.5986399651 0.089573398232 -0.0050773997791 -4.7836899757 -0.0049985698424 -0.0062314402312
          -4.765540123 0.29459398985 -0.015708299354 -4.6812400818 0.14698000252 0.1767770052
          -3.8818199635 0.0094203203917 -0.0044903801754 -4.0997099876 -0.04042249918 -0.065122202039
          -4.0238199234 -0.033451199532 0.28527000546 -4.1423802376 -0.18350799382 0.11192400008
          -0.65928399563 -0.29948800802 0.30083200336 -0.55561101437 -0.26461198926 0.5
          -0.53887498379 -0.034443799406 0.20534600317 -0.47073799372 -0.22246700525 0.21898700297
          2.2021598816 0.01178739965 -0.018270699307 2.1815600395 -0.001020470052 -0.32536798716
          2.2014501095 -0.17346900702 -0.18166600168 2.2796599865 0.15909999609 -0.20078100264
          -2.1809399128 -0.24249899387 0.24300700426 -2.3618400097 -0.32881900668 0.3184300065
          -2.1087300777 -0.5 0.46349099278 -2.268130064 -0.5 0.23155200481
          1.8789199591 -0.10240700096 0.16247299314 1.9567300081 0.0023706499487 0.0081458101049
          2.0873699188 -0.15330499411 0.011435699649 1.9551000595 0.040498699993 0.28340399265
          1.2891700268 0.025188799948 0.31899100542 1.1710499525 0.11986300349 0.5
          1.3807200193 0.21050100029 0.5 1.3978899717 -0.017269099131 0.5
          2.4715499878 0.29645401239 0.5 2.6206200123 0.32416799664 0.30228099227
          2.5758199692 0.075252600014 0.5 2.6809399128 0.37128800154 0.5
          2.1093399525 0.13601699471 0.5 2.2194900513 -0.0036427800078 0.3248629868
          2.1986699104 0.16770100594 0.18445199728 1.9551000595 0.040498699993 0.28340399265
          -4.8052501678 -0.030253799632 0.27854898572 -4.794549942 -0.32775598764 0.30355900526
          -4.605700016 -0.14155100286 0.34099599719 -4.6742100716 -0.19076700509 0.15933300555
          1.0735499859 -0.2803800106 -0.2859480083 0.96319800615 -0.25574100018 -0.086030602455
          0.82210099697 -0.27426099777 -0.29057401419 0.93065899611 -0.030296299607 -0.23989999294
          -2.7622299194 0.5 0.0010923099471 -2.8985300064 0.5 0.19352899492
          -2.7599999905 0.5 0.28317898512 -2.8269600868 0.33847901225 0.099728599191
          2.2103800774 -0.5 0.38068500161 2.0716900826 -0.38688901067 0.5
          2.0752000809 -0.5 0.1838440001 2.0565500259 -0.31903299689 0.2972239852
          -2.6140599251 -0.2892279923 0.31681698561 -2.4500799179 -0.18146699667 0.1914049983
          -2.7145900726 -0.082542397082 0.279302001 -2.6965899467 -0.25478899479 0.070601798594
          1.7617299557 0.19749200344 -0.18400299549 1.7197300196 -0.0059337001294 -0.015229499899
          1.9609899521 0.27691298723 0.076514601707 1.9567300081 0.0023706499487 0.0081458101049
          0.84539800882 -0.5 0.45313599706 0.65357899666 -0.5 0.40985101461
          0.77794498205 -0.5 0.24261300266 0.7291790247 -0.29900100827 0.29153800011
          -1.0750999451 -0.011404699646 0.007108009886 -1.1722400188 -0.078797601163 -0.24050499499
          -1.1855100393 -0.25224798918 -0.0140108997 -0.93913400173 -0.20071199536 -0.20192199945
          2.6889400482 0.16072399914 0.18579299748 2.6219000816 -0.015453300439 0.30282199383
          2.7103700638 -0.17533199489 0.17696000636 2.6777200699 -0.0055014099926 -0.0048864497803
          -0.63783198595 0.084412999451 -0.319272995 -0.7856760025 -0.061230801046 -0.29652500153
          -0.72751402855 0.0171670001 -0.5 -0.89940702915 0.048585001379 -0.5
          2.2155299187 0.29384601116 -0.016047000885 2.4481799603 0.24948500097 0.0013240700355
          2.4688100815 0.27537798882 -0.28756999969 2.2796599865 0.15909999609 -0.20078100264
          4.5822200775 0.29958099127 -0.0073895901442 4.3127498627 0.19265699387 0.16710400581
          4.4985699654 0.29182401299 0.2750479877 4.5015702248 0.045086801052 0.27461698651
          1.0351999998 0.5 -0.23184999824 1.2285900116 0.5 1.5277299099e-05
          1.0667099953 0.30986699462 -0.00099666800816 0.85752302408 0.5 0.012258999981
          3.4734098911 0.21108800173 -0.2205349952 3.1808700562 0.17408800125 -0.17278499901
          3.4302000999 -0.042014900595 -0.25968700647 3.2905800343 0.095524303615 -0.3324739933
          -5 -0.26007699966 0.21836000681 -4.794549942 -0.32775598764 0.30355900526
          -5 -0.12896800041 0.37591099739 -4.8052501678 -0.030253799632 0.27854898572
          -4.1503901482 0.15257999301 -0.18268600106 -4.2314600945 0.092286400497 0.01309709996
          -3.9890100956 0.24387900531 0.0062287501059 -4.0997099876 -0.04042249918 -0.065122202039
          1.8424299955 0.5 0.20660300553 1.818590045 0.3155849874 0.32314199209
          1.9609899521 0.27691298723 0.076514601707 1.7132099867 0.18727500737 0.17964400351
          -2.6140599251 -0.2892279923 0.31681698561 -2.7145900726 -0.082542397082 0.279302001
          -2.9220399857 -0.26491099596 0.30408999324 -2.6965899467 -0.25478899479 0.070601798594
          1.5800199509 0.5 0.11975900084 1.818590045 0.3155849874 0.32314199209
          1.8424299955 0.5 0.20660300553 1.7132099867 0.18727500737 0.17964400351
          -2.1895999908 0.28031998873 -0.27681100368 -2.3742499352 0.16180799901 -0.16647900641
          -2.4123599529 0.30793198943 -0.0017855500337 -2.182790041 0.25494199991 0.029647100717
          3.2362499237 -0.1912920028 -0.17273800075 3.1624600887 -0.015569499694 -0.02179059945
          3.4506099224 -0.25270500779 -0.04623780027 3.1743900776 -0.18350000679 0.1536089927
          1.7132099867 0.18727500737 0.17964400351 1.4897999763 0.29271999002 0.26752799749
          1.688740015 0.32006499171 0.5 1.6280800104 0.11417599767 0.5
          2.6700599194 -0.18108099699 -0.17258299887 2.6354598999 -0.29880100489 0.010485099629
          2.6533699036 -0.5 -0.22465799749 2.4389500618 -0.2577829957 -0.080456696451
          -1.2537200451 0.5 -0.48933500051 -1.5764600039 0.36043098569 -0.5
          -1.4210100174 0.5 -0.29471999407 -1.3414299488 0.2976360023 -0.30167099833
          -3.1328499317 0.5 -0.05846099928 -3.2586500645 0.20448499918 -0.21992500126
          -3.3652899265 0.29221200943 0.018539199606 -3.0080699921 0.29238799214 0.028416100889
          4.0785198212 0.2688550055 0.022481000051 4.0968198776 0.5 0.16808399558
          4.0127902031 0.5 -0.00039253599243 4.213329792 0.5 0.0031955000013
          2.4390499592 -0.057027101517 -0.2462310046 2.4395799637 -0.026134699583 0.038382198662
          2.6477799416 0.16645799577 -0.17383100092 2.6777200699 -0.0055014099926 -0.0048864497803
          2.7578799725 -0.10127799958 -0.5 2.7792201042 -0.32771399617 -0.28562399745
          2.7811000347 -0.31243601441 -0.5 2.5818200111 -0.276602 -0.5
          4.1566100121 -0.27463600039 -0.28568801284 4.4999699593 -0.30107301474 -0.267922014
          4.3479599953 -0.069560296834 -0.31158301234 4.3206100464 -0.13641299307 -0.5
          2.7578799725 -0.10127799958 -0.5 2.7792201042 -0.32771399617 -0.28562399745
          2.9589400291 -0.2156240046 -0.5 2.7811000347 -0.31243601441 -0.5
          1.2676099539 0.18327300251 0.17430500686 1.4356100559 0.30725300312 0.014958400279
          1.2285900116 0.5 1.5277299099e-05 1.0667099953 0.30986699462 -0.00099666800816
          -1.5302300453 -0.20296399295 0.1751369983 -1.334980011 -0.066682696342 0.27562999725
          -1.5496799946 -0.11574400216 0.5 -1.5232800245 0.099855400622 0.30515301228
          3.8334798813 -0.29951399565 -0.035472199321 3.7557299137 -0.14269599319 0.12685400248
          3.8543400764 -0.043197199702 -0.061682298779 3.9352300167 -0.034624699503 0.14412599802
          4.0785198212 0.2688550055 0.022481000051 4.0127902031 0.5 -0.00039253599243
          3.867939949 0.29484701157 -0.023631099612 3.9085800648 0.5 -0.15719300508
          -2.3761999607 0.32358598709 -0.5 -2.5055100918 0.5 -0.47431001067
          -2.4157299995 0.5 -0.27320700884 -2.4949100018 0.29038199782 -0.30940899253
          1.6999000311 0.18993200362 -0.5 1.6074999571 0.030789300799 -0.26509699225
          1.785670042 0.036040998995 -0.5 1.5757000446 -0.01348510012 -0.5
          2.3991000652 0.5 0.11198899895 2.4116399288 0.33501198888 0.26824301481
          2.1185901165 0.5 0.19517299533 2.2874000072 0.5 0.36383101344
          1.2553399801 0.02869570069 -0.044535700232 1.2041200399 0.21308499575 -0.18568199873
          1.0260499716 0.011771400459 0.016185000539 1.035220027 0.14891000092 -0.29856100678
          3.4302000999 -0.042014900595 -0.25968700647 3.2644200325 -0.026787700132 -0.5
          3.2362499237 -0.1912920028 -0.17273800075 3.190030098 -0.22524799407 -0.5
          4.7124700546 0.20787400007 -0.21475000679 4.8058700562 0.17079499364 -0.0053127701394
          5 0.32882899046 -0.12744599581 5 0.16910900176 -0.16435900331
          -1.0002299547 0.5 0.26042699814 -0.79987299442 0.5 0.33046600223
          -0.93830001354 0.5 0.10322599858 -0.92035800219 0.31782001257 0.33497199416
          2.6354598999 -0.29880100489 0.010485099629 2.7103700638 -0.17533199489 0.17696000636
          2.94404006 -0.24824899435 0.048307999969 2.7222399712 -0.5 0.087961599231
          -0.93832302094 -0.045258000493 0.24930199981 -1.0791499615 0.061705000699 0.5
          -0.96254199743 0.19088900089 0.5 -0.93892097473 -0.041356798261 0.5
          -0.14947299659 -0.5 -0.13736000657 -0.18628300726 -0.26750600338 -0.029726099223
          0.02034159936 -0.29206499457 -0.27554398775 0.10427799821 -0.31776800752 -0.01549869962
          2.9283499718 0.5 0.14330999553 3.095690012 0.30450299382 0.0079884901643
          3.0071001053 0.30889099836 0.30772000551 3.1571199894 0.5 0.16706800461
          -3.119879961 0.056279499084 0.0078261103481 -3.353219986 0.018101999536 -0.0069937198423
          -3.1703898907 -0.28369298577 0.029881799594 -3.1692500114 -0.17956000566 -0.18042400479
          1.2285900116 0.5 1.5277299099e-05 1.0695999861 0.5 0.21742899716
          1.0667099953 0.30986699462 -0.00099666800816 0.85752302408 0.5 0.012258999981
          3.9538800716 -0.19349299371 -0.21224999428 4.1160001755 -0.25597798824 -0.023964699358
          4.0018801689 -0.5 -0.21358500421 3.8334798813 -0.29951399565 -0.035472199321
          2.797960043 -0.29616799951 0.32714900374 2.7103700638 -0.17533199489 0.17696000636
          2.94404006 -0.24824899435 0.048307999969 2.9692099094 -0.18215200305 0.27709600329
          1.6971999407 -0.18535399437 -0.17042499781 1.673140049 -0.32074698806 -0.32187500596
          1.7917699814 -0.17960299551 -0.5 1.6074999571 0.030789300799 -0.26509699225
          -2.6087799072 -0.18399499357 -0.098889403045 -2.4091000557 0.010666499846 0.010404500179
          -2.4208400249 -0.17098300159 -0.17608100176 -2.4605801105 -0.31329700351 0.0017525800504
          -1.1722400188 -0.078797601163 -0.24050499499 -1.3341200352 0.058667398989 -0.30476099253
          -1.2810100317 -0.16105599701 -0.5 -1.1455899477 -0.027385700494 -0.5
          -1.3414299488 0.2976360023 -0.30167099833 -1.4892100096 0.17613700032 -0.19808200002
          -1.3366099596 0.20833599567 -0.5 -1.6463500261 0.28474900126 -0.30618798733
          -3.1326100826 -0.026751099154 0.30142500997 -3.1171200275 -0.32041800022 0.23436300457
          -2.9220399857 -0.26491099596 0.30408999324 -3.0034298897 -0.12146800011 0.11256500334
          -3.0067799091 -0.070524998009 -0.1112980023 -3.119879961 0.056279499084 0.0078261103481
          -3.1703898907 -0.28369298577 0.029881799594 -3.1692500114 -0.17956000566 -0.18042400479
          -0.21006199718 -0.066769301891 -0.5 -0.11357299984 -0.14485199749 -0.33142700791
          -0.29398798943 -0.19200000167 -0.2282319963 -0.24800799787 0.0088232699782 -0.29918900132
          -4.4353399277 -0.2726149857 -0.5 -4.623360157 -0.31539899111 -0.5
          -4.4539299011 -0.1930360049 -0.27674099803 -4.4034199715 -0.5 -0.43696299195
          -2.5539898872 0.16441999376 -0.075327299535 -2.6367399693 0.26534798741 0.078260503709
          -2.6850099564 0.20022499561 -0.22423900664 -2.6490800381 0.5 -0.17990100384
          4.7109298706 -0.5 0.037262801081 4.5328397751 -0.5 0.28382301331
          4.4995098114 -0.5 0.058421999216 4.6710700989 -0.19623799622 0.19057400525
          -4.2342700958 -0.2943969965 -0.036790598184 -4.3720297813 -0.5 0.12119200081
          -4.439789772 -0.27735000849 -0.054897699505 -4.2715802193 -0.32873600721 0.20494799316
          2.3215301037 -0.5 0.19653899968 2.2103800774 -0.5 0.38068500161
          2.0752000809 -0.5 0.1838440001 2.2669200897 -0.32125800848 0.30331799388
          -4.1456699371 -0.049980100244 -0.5 -4.0346798897 -0.02448659949 -0.29127898812
          -4.0139598846 -0.2127609998 -0.5 -4.0849199295 -0.30423098803 -0.31639400125
          4.8028302193 -0.29806599021 -0.33157899976 5 -0.058660898358 -0.40873599052
          4.9127898216 -0.40444201231 -0.5 5 -0.29155600071 -0.27424201369
          0.29461199045 -0.27944099903 -0.5 0.27188199759 -0.21608300507 -0.19496400654
          0.02034159936 -0.29206499457 -0.27554398775 0.084536299109 -0.24571800232 -0.5
          -4.2389798164 0.42935600877 -0.5 -4.0830402374 0.30948498845 -0.29728299379
          -4.1164798737 0.5 -0.23297099769 -4.0648899078 0.5 -0.42759600282
          0.17147399485 -0.046462800354 -0.28626099229 0.22253899276 0.29792100191 -0.30861100554
          0.20413899422 0.23499399424 -0.5 0.3679780066 0.042948998511 -0.26218301058
          -2.9389500618 -0.039363101125 -0.5 -2.9157800674 -0.27548700571 -0.5
          -3.0114998817 -0.30267500877 -0.29305499792 -2.8483600616 -0.1823129952 -0.18523199856
          4.289440155 0.31779500842 -0.5 4.501060009 0.27867999673 -0.21826599538
          4.2950100899 0.5 -0.35224300623 4.4979701042 0.25243699551 -0.5
          -2.4949100018 0.29038199782 -0.30940899253 -2.6850099564 0.20022499561 -0.22423900664
          -2.8308899403 0.31933999062 -0.31058201194 -2.7123599052 0.5 -0.38375499845
          1.0695999861 0.5 0.21742899716 0.8470069766 0.5 0.36908501387
          1.0224000216 0.5 0.41114699841 0.96667098999 0.22423000634 0.21116599441
          -0.93830001354 0.5 0.10322599858 -1.0912200212 0.5 0.03137230128
          -1.1475800276 0.23044300079 0.22876000404 -1.0172100067 0.25485399365 -0.020222399384
          4.373770237 0.29578301311 -0.0035506200511 4.5567698479 0.040265500546 -0.029345599934
          4.5822200775 0.29958099127 -0.0073895901442 4.501060009 0.27867999673 -0.21826599538
          -0.7581089735 -0.15487499535 -0.5 -1.0093300343 -0.26582100987 -0.5
          -0.77074998617 -0.30250000954 -0.3132340014 -0.7991899848 -0.42665201426 -0.5
          4.091340065 0.41007000208 -0.5 4.0157899857 0.23598599434 -0.23627699912
          4.1898999214 0.32223001122 -0.31539100409 4.1314902306 0.23748099804 -0.5
          -1.6403199434 -0.1704210043 -0.5 -1.5251499414 -0.076651901007 -0.31482899189
          -1.3918299675 -0.029553499073 -0.5 -1.4115899801 -0.27296701074 -0.5
          1.8845000267 0.5 -0.10376700014 1.9183299541 0.30307900906 -0.11740200222
          2.0364201069 0.5 -0.27101698518 1.8882399797 0.5 -0.32798698545
          1.9453500509 -0.087545797229 -0.2573390007 1.7917699814 -0.17960299551 -0.5
          2.040199995 0.016450500116 -0.5 1.785670042 0.036040998995 -0.5
          0.086851902306 0.090062998235 -0.5 0.22253899276 0.29792100191 -0.30861100554
          0.20413899422 0.23499399424 -0.5 0.17147399485 -0.046462800354 -0.28626099229
          -1.1475800276 0.23044300079 0.22876000404 -1.241230011 0.18273699284 0.5
          -1.174579978 0.41473001242 0.5 -0.96254199743 0.19088900089 0.5
          -4.2659602165 0.28228399158 0.5 -4.1248002052 0.32227998972 0.33130601048
          -4.261590004 0.5 0.28367200494 -4.4165802002 0.22745400667 0.23878499866
          1.2553399801 0.02869570069 -0.044535700232 1.035220027 0.14891000092 -0.29856100678
          1.0260499716 0.011771400459 0.016185000539 1.139539957 -0.036767199636 -0.30390501022
          -0.7856760025 -0.061230801046 -0.29652500153 -0.77074998617 -0.30250000954 -0.3132340014
          -0.78096401691 -0.28885498643 -0.091540999711 -0.6270070076 -0.18018999696 -0.18880400062
          0.89332699776 0.23076300323 -0.16234900057 1.0351999998 0.5 -0.23184999824
          1.0355600119 0.3612369895 -0.5 1.035220027 0.14891000092 -0.29856100678
          0.25995999575 0.5 0.30666300654 0.25142499804 0.20395800471 0.20601199567
          0.45764601231 0.28433001041 0.29305499792 0.27400401235 0.5 0.12896299362
          4.814139843 -0.29069000483 0.014058699831 4.7783799171 -0.058915100992 0.015639599413
          5 -0.20979200304 0.28537601233 4.6710700989 -0.19623799622 0.19057400525
          -2.0815498829 -0.33450999856 -0.28891399503 -1.9762599468 -0.5 -0.39294800162
          -1.8430000544 -0.33087998629 -0.29164901376 -1.868549943 -0.36587700248 -0.5
          1.8699899912 -0.30787700415 -0.26772201061 1.7917699814 -0.17960299551 -0.5
          1.8518699408 -0.5 -0.39846301079 2.042320013 -0.28687000275 -0.5
          -0.29334101081 0.37132000923 0.5 -0.38609901071 0.25310799479 0.3300819993
          -0.31256601214 0.5 0.24124599993 -0.46542999148 0.5 0.387439996
          2.1141200066 -0.5 -0.35961300135 1.9810800552 -0.5 -0.19643999636
          1.8518699408 -0.5 -0.39846301079 1.8699899912 -0.30787700415 -0.26772201061
          -2.9412100315 -0.31262499094 -0.011466300115 -3.0067799091 -0.070524998009 -0.1112980023
          -3.1703898907 -0.28369298577 0.029881799594 -3.1692500114 -0.17956000566 -0.18042400479
          4.2942700386 0.099316298962 -0.5 4.2944598198 0.20695400238 -0.17472800612
          4.289440155 0.31779500842 -0.5 4.4979701042 0.25243699551 -0.5
          0.58512401581 -0.18639500439 0.18318599463 0.36774501204 -0.27583301067 0.050296399742
          0.58827602863 -0.023083500564 0.03204099834 0.3798109889 -0.11770299822 0.17650899291
          -2.461810112 -0.5 -0.23160800338 -2.4834799767 -0.27802801132 -0.5
          -2.2611498833 -0.21604500711 -0.31563100219 -2.6132099628 -0.29757499695 -0.26779401302
          1.818590045 0.3155849874 0.32314199209 1.71875 0.012455300428 0.32105600834
          1.9254900217 0.21205799282 0.5 1.9551000595 0.040498699993 0.28340399265
          0.76386100054 -0.10622999817 0.089437901974 0.75085902214 -0.045475300401 0.28253901005
          0.87731397152 0.049460299313 0.15210199356 0.89871001244 -0.21273000538 0.19672900438
          -1.2810100317 -0.16105599701 -0.5 -1.2095999718 -0.31749498844 -0.5
          -1.1352299452 -0.30921301246 -0.27610599995 -1.0093300343 -0.26582100987 -0.5
          -4.3976202011 -0.16255900264 0.25912800431 -4.5459198952 -0.24766799808 0.5
          -4.237349987 -0.30583998561 0.5 -4.3996100426 -0.5 0.31058299541
          2.3120000362 -0.058240499347 -0.5 2.2389800549 -0.33469301462 -0.31423199177
          2.4390499592 -0.057027101517 -0.2462310046 2.4597499371 -0.30076900125 -0.3059630096
          2.2014501095 -0.17346900702 -0.18166600168 2.042320013 -0.28687000275 -0.5
          2.2389800549 -0.33469301462 -0.31423199177 2.2094399929 -0.21062499285 -0.5
          4.5256800652 -0.098457798362 -0.5 4.5178999901 -0.10659900308 -0.17478400469
          4.6962199211 -0.21809899807 -0.17522199452 4.4999699593 -0.30107301474 -0.267922014
          0.76468199492 0.37051400542 0.5 0.69564402103 0.31359699368 0.28978401423
          0.6344910264 0.5 0.40687701106 0.57046198845 0.31609800458 0.5
          1.2041200399 0.21308499575 -0.18568199873 1.3415499926 0.046351000667 -0.2966940105
          1.035220027 0.14891000092 -0.29856100678 1.139539957 -0.036767199636 -0.30390501022
          1.4891799688 -0.27188199759 0.26980000734 1.3978899717 -0.017269099131 0.5
          1.2891700268 0.025188799948 0.31899100542 1.4909499884 0.035039100796 0.2443370074
          -2.6364200115 -0.0513737984 -0.25086298585 -2.8483600616 -0.1823129952 -0.18523199856
          -2.8699100018 0.034952599555 0.013808799908 -2.6441700459 0.0031107501127 0.0051095401868
          4.8905501366 0.13403299451 -0.5 5 0.16910900176 -0.16435900331
          4.7124700546 0.20787400007 -0.21475000679 5 0.35498699546 -0.28927499056
          0.3679780066 0.042948998511 -0.26218301058 0.17147399485 -0.046462800354 -0.28626099229
          0.2199189961 -0.15206000209 -0.010414100252 0.27188199759 -0.21608300507 -0.19496400654
          3.4346001148 0.010584499687 0.0013051299611 3.1808700562 0.17408800125 -0.17278499901
          3.1624600887 -0.015569499694 -0.02179059945 3.4302000999 -0.042014900595 -0.25968700647
          3.8334798813 -0.29951399565 -0.035472199321 3.8543400764 -0.043197199702 -0.061682298779
          3.6450901031 -0.17131699622 -0.19211299717 3.9538800716 -0.19349299371 -0.21224999428
          4.6661100388 -0.5 -0.39997300506 4.737279892 -0.20036800206 -0.5
          4.9127898216 -0.40444201231 -0.5 4.8028302193 -0.29806599021 -0.33157899976
          -4.8396000862 0.080449603498 -0.5 -5 0.09418129921 -0.34129801393
          -4.7847399712 0.018612299114 -0.27819800377 -5 -0.13075700402 -0.36378800869
          -1.9560199976 0.18910500407 0.17773799598 -2.0332100391 0.28143399954 0.34608799219
          -1.9649800062 -0.0049698902294 0.29592001438 -2.1791601181 0.066247500479 0.26825898886
          -0.28813400865 0.5 -0.011587300338 -0.50226300955 0.5 0.14767700434
          -0.47131600976 0.32570299506 -0.023170199245 -0.43139898777 0.5 -0.15948499739
          -1.3727099895 0.30601900816 0.28291600943 -1.4028999805 0.13422000408 0.12791000307
          -1.5486299992 0.27752000093 0.017110800371 -1.6647800207 0.24374599755 0.22540199757
          1.4891799688 -0.27188199759 0.26980000734 1.6828099489 -0.15067499876 0.17043499649
          1.8512899876 -0.25720700622 0.29749301076 1.6337100267 -0.2680259943 0.5
          1.6531300545 -0.5 0.42902299762 1.4891799688 -0.27188199759 0.26980000734
          1.8512899876 -0.25720700622 0.29749301076 1.6337100267 -0.2680259943 0.5
          -3.9890100956 0.24387900531 0.0062287501059 -4.0642700195 0.5 0.20991900563
          -3.8861699104 0.22745600343 0.24729199708 -4.1248002052 0.32227998972 0.33130601048
          4.5822200775 0.29958099127 -0.0073895901442 4.4985699654 0.29182401299 0.2750479877
          4.7025499344 0.19734199345 0.20103999972 4.5015702248 0.045086801052 0.27461698651
          -1.4892100096 0.17613700032 -0.19808200002 -1.7309900522 0.022700900212 -0.2696749866
          -1.5096600056 -0.035843800753 0.024828599766 -1.5251499414 -0.076651901007 -0.31482899189
          4.7025499344 0.19734199345 0.20103999972 4.4985699654 0.29182401299 0.2750479877
          4.625770092 0.13625299931 0.5 4.5015702248 0.045086801052 0.27461698651
          -3.0034298897 -0.12146800011 0.11256500334 -3.2899799347 -0.19551900029 0.21153800189
          -3.1171200275 -0.32041800022 0.23436300457 -3.1703898907 -0.28369298577 0.029881799594
          1.2443100214 -0.5 -0.079079799354 1.1665500402 -0.30232200027 0.032807700336
          1.0735499859 -0.2803800106 -0.2859480083 1.2388900518 -0.17473700643 -0.16655999422
          -0.18628300726 -0.26750600338 -0.029726099223 -0.014323200099 -0.10396199673 0.093425601721
          -0.012120299973 -0.32062399387 0.28174200654 -0.17885400355 -0.17817400396 0.19088800251
          1.0735499859 -0.2803800106 -0.2859480083 0.96319800615 -0.25574100018 -0.086030602455
          1.139539957 -0.036767199636 -0.30390501022 1.2388900518 -0.17473700643 -0.16655999422
          -1.5496799946 -0.11574400216 0.5 -1.7749300003 -0.093701399863 0.5
          -1.637830019 -0.34564900398 0.5 -1.7268799543 -0.26261898875 0.29539200664
          -3.9185600281 -0.21505500376 -0.20922599733 -3.7279200554 -0.31415998936 -0.27874299884
          -3.8310699463 -0.5 -0.38916000724 -3.8106400967 -0.5 -0.18066500127
          -2.8985300064 0.5 0.19352899492 -3.1328499317 0.5 -0.05846099928
          -3.0080699921 0.29238799214 0.028416100889 -2.9498999119 0.5 -0.14169600606
          -0.16925099492 0.29148900509 0.27573001385 -0.38609901071 0.25310799479 0.3300819993
          -0.29486501217 0.23727999628 0.084538802505 -0.31256601214 0.5 0.24124599993
          0.62789398432 -0.5 -0.19392700493 0.68863600492 -0.5 0.092009201646
          0.5135999918 -0.5 0.087553098798 0.57815998793 -0.31825500727 -0.050177000463
          -0.38609901071 0.25310799479 0.3300819993 -0.29486501217 0.23727999628 0.084538802505
          -0.31256601214 0.5 0.24124599993 -0.50226300955 0.5 0.14767700434
          4.1160001755 -0.25597798824 -0.023964699358 3.8334798813 -0.29951399565 -0.035472199321
          3.8753499985 -0.34310999513 0.22761000693 3.9580099583 -0.5 0.00037011300446
          -4.1248002052 0.32227998972 0.33130601048 -3.8746600151 0.5 0.47712299228
          -3.8861699104 0.22745600343 0.24729199708 -3.9800200462 0.29855400324 0.5
          1.8424299955 0.5 0.20660300553 1.818590045 0.3155849874 0.32314199209
          2.0662400723 0.5 0.45344299078 2.0367600918 0.30077698827 0.30471900105
          1.4914300442 0.0569607988 -0.04182960093 1.4909499884 0.035039100796 0.2443370074
          1.4679900408 -0.23194299638 -0.032342601568 1.298789978 -0.15092399716 0.16408100724
          -4.1503901482 0.15257999301 -0.18268600106 -3.9890100956 0.24387900531 0.0062287501059
          -3.8989500999 0.24744200706 -0.23554000258 -3.8818199635 0.0094203203917 -0.0044903801754
          4.8058700562 0.17079499364 -0.0053127701394 4.5822200775 0.29958099127 -0.0073895901442
          4.7025499344 0.19734199345 0.20103999972 4.5567698479 0.040265500546 -0.029345599934
          3.6450901031 -0.17131699622 -0.19211299717 3.7685399055 -0.11422099918 -0.34736299515
          3.8543400764 -0.043197199702 -0.061682298779 3.6228199005 0.064896397293 -0.30187800527
          -1.9560199976 0.18910500407 0.17773799598 -2.131000042 0.5 0.14166200161
          -2.182790041 0.25494199991 0.029647100717 -1.9903299809 0.30669298768 -0.0096472296864
          3.4290299416 -0.5 -0.34937500954 3.3585400581 -0.5 -0.16122399271
          3.2248399258 -0.5 -0.3111949861 3.4532198906 -0.27570098639 -0.28086999059
          -1.29381001 0.12503300607 0.31571400166 -1.241230011 0.18273699284 0.5
          -1.2071299553 -0.056219801307 0.5 -1.432109952 0.071380198002 0.5
          4.8203802109 0.5 -0.047230999917 4.5822200775 0.29958099127 -0.0073895901442
          4.8058700562 0.17079499364 -0.0053127701394 4.7124700546 0.20787400007 -0.21475000679
          3.4532198906 -0.27570098639 -0.28086999059 3.6315801144 -0.5 -0.39594000578
          3.4290299416 -0.5 -0.34937500954 3.5628299713 -0.5 -0.19047999382
          -1.1352299452 -0.30921301246 -0.27610599995 -1.2095999718 -0.31749498844 -0.5
          -1.2733399868 -0.5 -0.29207199812 -1.1371999979 -0.5 -0.43496501446
          4.3918099403 0.5 0.31080400944 4.6767001152 0.5 0.46980398893
          4.5328998566 0.5 0.15708899498 4.4985699654 0.29182401299 0.2750479877
          -3.4054200649 -0.24873800576 -0.029902800918 -3.5715000629 -0.33374500275 -0.11063300073
          -3.3001599312 -0.5 -0.014418800361 -3.3308799267 -0.5 -0.28216999769
          -3.5715000629 -0.33374500275 -0.11063300073 -3.7279200554 -0.31415998936 -0.27874299884
          -3.6053900719 -0.5 -0.22260099649 -3.406719923 -0.26567399502 -0.27803298831
          -4.1456699371 -0.049980100244 -0.5 -4.4012899399 0.03873860091 -0.27101901174
          -4.2221798897 -0.17677399516 -0.20671699941 -4.3489499092 -0.10022199899 -0.5
          -2.2191998959 0.31082698703 0.26025301218 -2.3996500969 0.17564900219 0.17784799635
          -2.1791601181 0.066247500479 0.26825898886 -2.182790041 0.25494199991 0.029647100717
          -2.8274400234 0.051215600222 -0.3225030005 -2.8308899403 0.31933999062 -0.31058201194
          -2.8458900452 0.23675900698 -0.5 -2.6850099564 0.20022499561 -0.22423900664
          4.3278198242 -0.19421100616 -0.1541839987 4.4999699593 -0.30107301474 -0.267922014
          4.3579602242 -0.5 -0.20988300443 4.5181698799 -0.25569599867 -0.00080205698032
          -0.93892097473 -0.041356798261 0.5 -0.95835602283 -0.27399000525 0.5
          -0.93832302094 -0.045258000493 0.24930199981 -1.1246000528 -0.21291700006 0.24169400334
          -3.406719923 -0.26567399502 -0.27803298831 -3.6053900719 -0.5 -0.22260099649
          -3.5715000629 -0.33374500275 -0.11063300073 -3.3308799267 -0.5 -0.28216999769
          -4.4165802002 0.22745400667 0.23878499866 -4.2024998665 0.29241999984 0.027058599517
          -4.261590004 0.5 0.28367200494 -4.4328398705 0.5 0.16251300275
          1.139539957 -0.036767199636 -0.30390501022 1.3415499926 0.046351000667 -0.2966940105
          1.2840600014 -0.15874500573 -0.5 1.2388900518 -0.17473700643 -0.16655999422
          -4.7674899101 0.33730000257 0.27226099372 -4.6812400818 0.14698000252 0.1767770052
          -4.6791801453 0.16429899633 0.5 -4.5957798958 0.24809199572 0.32881501317
          4.1898999214 0.32223001122 -0.31539100409 4.2976098061 0.5 -0.16453999281
          4.2950100899 0.5 -0.35224300623 4.501060009 0.27867999673 -0.21826599538
          -2.0386500359 -0.018439799547 -0.5 -1.8528900146 0.074574902654 -0.5
          -1.9522600174 -0.011583000422 -0.29229301214 -2.0428700447 0.13684900105 -0.5
          -0.53887498379 -0.034443799406 0.20534600317 -0.55561101437 -0.26461198926 0.5
          -0.51341497898 -0.020596599206 0.5 -0.47073799372 -0.22246700525 0.21898700297
          -4.2221798897 -0.17677399516 -0.20671699941 -4.0997099876 -0.04042249918 -0.065122202039
          -4.2342700958 -0.2943969965 -0.036790598184 -4.411260128 -0.00020594299713 -0.0010824199999
          3.790719986 -0.5 -0.15779900551 3.6745901108 -0.5 -0.024972600862
          3.8334798813 -0.29951399565 -0.035472199321 3.8067100048 -0.5 0.09490519762
          -4.1479997635 0.1524810046 0.18773500621 -4.2659602165 0.28228399158 0.5
          -4.1556100845 0.12476799637 0.5 -4.2407898903 -0.014909300022 0.29183000326
          -3.5796399117 -0.036828301847 0.30965799093 -3.725509882 -0.28060400486 0.5
          -3.6482999325 -0.031938001513 0.5 -3.5133900642 -0.13522699475 0.5
          2.4597499371 -0.30076900125 -0.3059630096 2.5833399296 -0.5 -0.06280399859
          2.6533699036 -0.5 -0.22465799749 2.3567500114 -0.5 -0.25275498629
          -1.2430000305 0.5 0.28215000033 -1.3802700043 0.5 0.48661699891
          -1.3727099895 0.30601900816 0.28291600943 -1.5013799667 0.5 0.29929700494
          3.2362499237 -0.1912920028 -0.17273800075 3.4346001148 0.010584499687 0.0013051299611
          3.4506099224 -0.25270500779 -0.04623780027 3.1624600887 -0.015569499694 -0.02179059945
          3.6606800556 0.057222399861 0.047008000314 3.4734098911 0.21108800173 -0.2205349952
          3.7566299438 0.15342700481 -0.14512400329 3.6093900204 0.31306898594 -0.027008600533
          2.5257198811 0.5 0.37575000525 2.6809399128 0.37128800154 0.5
          2.6206200123 0.32416799664 0.30228099227 2.4715499878 0.29645401239 0.5
          -2.2438600063 -0.050747901201 -0.5 -2.2611498833 -0.21604500711 -0.31563100219
          -2.4248900414 -0.10110799968 -0.5 -2.3735599518 -0.0037444499321 -0.31686800718
          -3.595760107 0.14106500149 0.5 -3.7759699821 0.12645199895 0.5
          -3.6482999325 -0.031938001513 0.5 -3.776599884 -0.0024208100513 0.27819898725
          4.5328998566 0.5 0.15708899498 4.4985699654 0.29182401299 0.2750479877
          4.7025499344 0.19734199345 0.20103999972 4.5822200775 0.29958099127 -0.0073895901442
          1.8845000267 0.5 -0.10376700014 1.6638499498 0.32388100028 -0.30573499203
          1.8882399797 0.5 -0.32798698545 1.7353800535 0.5 -0.37083101273
          3.353579998 0.25871399045 0.31244799495 3.3688399792 0.28460401297 0.022468499839
          3.3886699677 0.01943529956 0.25713300705 3.5617899895 0.20520099998 0.20095099509
          -0.66166800261 -0.5 0.21156099439 -0.47073799372 -0.22246700525 0.21898700297
          -0.63264602423 -0.32936599851 0.064718000591 -0.48325100541 -0.5 0.32274898887
          -0.59884798527 -0.5 -0.081100203097 -0.63264602423 -0.32936599851 0.064718000591
          -0.6270070076 -0.18018999696 -0.18880400062 -0.42740899324 -0.30482000113 -0.02907329984
          4.4749798775 0.5 -0.22600099444 4.4144301414 0.5 -0.014668799937
          4.6908898354 0.5 -0.18460099399 4.5822200775 0.29958099127 -0.0073895901442
          -0.42740899324 -0.30482000113 -0.02907329984 -0.53925698996 -0.14979499578 0.041408799589
          -0.40286201239 -0.0046954802237 -0.0054140798748 -0.47073799372 -0.22246700525 0.21898700297
          4.5328998566 0.5 0.15708899498 4.4985699654 0.29182401299 0.2750479877
          4.7387499809 0.5 0.12298899889 4.7025499344 0.19734199345 0.20103999972
          1.8789199591 -0.10240700096 0.16247299314 2.1778399944 -0.17710599303 0.19188399613
          2.0565500259 -0.31903299689 0.2972239852 1.9551000595 0.040498699993 0.28340399265
          -0.33964401484 -0.12936100364 0.5 -0.10500200093 -0.014513599686 0.5
          -0.17885400355 -0.17817400396 0.19088800251 -0.10501199961 -0.31161299348 0.5
          4.2942700386 0.099316298962 -0.5 4.2944598198 0.20695400238 -0.17472800612
          4.4979701042 0.25243699551 -0.5 4.4943199158 0.06769169867 -0.29010298848
          1.8764899969 -0.15924200416 -0.081890702248 1.9567300081 0.0023706499487 0.0081458101049
          2.0873699188 -0.15330499411 0.011435699649 1.8789199591 -0.10240700096 0.16247299314
          -2.4123599529 0.30793198943 -0.0017855500337 -2.3742499352 0.16180799901 -0.16647900641
          -2.4157299995 0.5 -0.27320700884 -2.4949100018 0.29038199782 -0.30940899253
          -4.3720297813 -0.5 0.12119200081 -4.5130600929 -0.32579600811 0.18804700673
          -4.2715802193 -0.32873600721 0.20494799316 -4.3996100426 -0.5 0.31058299541
          -3.8539500237 0.5 0.19824199378 -3.697149992 0.5 0.36223399639
          -3.8861699104 0.22745600343 0.24729199708 -3.8746600151 0.5 0.47712299228
          -0.98949998617 -0.096335403621 -0.5 -0.77074998617 -0.30250000954 -0.3132340014
          -0.93913400173 -0.20071199536 -0.20192199945 -0.7856760025 -0.061230801046 -0.29652500153
          1.2443100214 -0.5 -0.079079799354 1.1665500402 -0.30232200027 0.032807700336
          1.0327399969 -0.5 -0.23253199458 1.0735499859 -0.2803800106 -0.2859480083
          -4.2490501404 -0.32240501046 -0.5 -4.2221798897 -0.17677399516 -0.20671699941
          -4.0849199295 -0.30423098803 -0.31639400125 -4.2746400833 -0.5 -0.25492700934
          -4.1456699371 -0.049980100244 -0.5 -4.0849199295 -0.30423098803 -0.31639400125
          -4.2490501404 -0.32240501046 -0.5 -4.2221798897 -0.17677399516 -0.20671699941
          -0.38609901071 0.25310799479 0.3300819993 -0.71377199888 0.30195298791 0.28811401129
          -0.55149698257 0.19303299487 0.18695600331 -0.62944000959 0.5 0.34010401368
          -0.21006199718 -0.066769301891 -0.5 -0.12994900346 0.14103500545 -0.5
          -0.028405899182 0.038570299745 -0.28863999248 -0.24800799787 0.0088232699782 -0.29918900132
          -3.8818199635 0.0094203203917 -0.0044903801754 -3.7506599426 -0.28654700518 -0.026961300522
          -3.5974299908 0.015700999647 0.0042460002005 -3.6039199829 -0.1486119926 -0.1880979985
          -2.4605801105 -0.31329700351 0.0017525800504 -2.6965899467 -0.25478899479 0.070601798594
          -2.6140599251 -0.2892279923 0.31681698561 -2.5808300972 -0.5 0.066097401083
          4.6631398201 0.058381199837 -0.5 4.7124700546 0.20787400007 -0.21475000679
          4.7205901146 0.28053200245 -0.5 4.8905501366 0.13403299451 -0.5
          4.1033101082 0.5 -0.16609400511 4.2976098061 0.5 -0.16453999281
          4.2950100899 0.5 -0.35224300623 4.1898999214 0.32223001122 -0.31539100409
          1.2443100214 -0.5 -0.079079799354 1.0404800177 -0.5 0.084503702819
          1.0327399969 -0.5 -0.23253199458 1.1665500402 -0.30232200027 0.032807700336
          4.2944598198 0.20695400238 -0.17472800612 4.0779399872 0.0020779399201 -0.0058176601306
          4.1566100121 -0.01251959987 -0.28246301413 4.0157899857 0.23598599434 -0.23627699912
          -2.1682898998 -0.037599701434 -0.23476999998 -2.1227400303 -0.27935901284 -0.5
          -2.0815498829 -0.33450999856 -0.28891399503 -1.9522600174 -0.011583000422 -0.29229301214
          3.1624600887 -0.015569499694 -0.02179059945 2.966039896 0.21264900267 0.13400100172
          3.1800200939 0.15828900039 0.1766680032 2.9201900959 0.0039753098972 -0.016150400043
          3.993170023 -0.055373799056 0.5 4.2180900574 0.013842199929 0.5
          4.0886101723 0.063145399094 0.2613709867 4.1275501251 -0.15113399923 0.5
          -0.79164099693 -0.5 -0.074961297214 -0.66166800261 -0.5 0.21156099439
          -0.63264602423 -0.32936599851 0.064718000591 -0.59884798527 -0.5 -0.081100203097
          2.0216500759 0.22515000403 -0.27024498582 2.2155299187 0.29384601116 -0.016047000885
          2.2007598877 0.32477998734 -0.29550099373 2.0588099957 0.16667899489 -0.072469100356
          -0.26246398687 0.5 -0.27721399069 -0.28813400865 0.5 -0.011587300338
          -0.30496299267 0.34233599901 -0.13862299919 -0.43139898777 0.5 -0.15948499739
          4.6710700989 -0.19623799622 0.19057400525 4.7109298706 -0.5 0.037262801081
          4.5328397751 -0.5 0.28382301331 4.8184399605 -0.5 0.27545198798
          -0.93892097473 -0.041356798261 0.5 -0.74638098478 -0.26905399561 0.5
          -0.70902901888 -0.081924401224 0.5 -0.87598198652 -0.27951401472 0.27214699984
          1.2285900116 0.5 1.5277299099e-05 1.4356100559 0.30725300312 0.014958400279
          1.3350299597 0.5 0.26320800185 1.5800199509 0.5 0.11975900084
          2.6795399189 -0.26569700241 0.5 2.4968700409 -0.3149009943 0.5
          2.4458899498 -0.25059598684 0.23923400044 2.5668699741 -0.11371900141 0.5
          -0.53925698996 -0.14979499578 0.041408799589 -0.81901800632 -0.064964897931 -0.069114297628
          -0.62403798103 0.035430200398 0.037675399333 -0.74051898718 -0.13983599842 0.1276730001
          0.46921399236 0.2665579915 0.056172598153 0.35873600841 0.27615499496 -0.16060699522
          0.56476098299 0.5 -0.044713400304 0.27108699083 0.5 -0.08351060003
          3.7557299137 -0.14269599319 0.12685400248 4.039850235 -0.20272299647 0.21478900313
          3.8753499985 -0.34310999513 0.22761000693 3.8265800476 -0.00065459497273 0.32086899877
          0.77794498205 -0.5 0.24261300266 0.78195297718 -0.29943698645 0.031285099685
          0.68863600492 -0.5 0.092009201646 0.77619498968 -0.5 -0.05961849913
          3.92689991 -0.25916099548 -0.5 4.0967798233 -0.21491999924 -0.5
          4.1566100121 -0.27463600039 -0.28568801284 3.9538800716 -0.19349299371 -0.21224999428
          1.9609899521 0.27691298723 0.076514601707 1.9551000595 0.040498699993 0.28340399265
          2.1986699104 0.16770100594 0.18445199728 1.9567300081 0.0023706499487 0.0081458101049
          -3.119879961 0.056279499084 0.0078261103481 -2.8699100018 0.034952599555 0.013808799908
          -3.0080699921 0.29238799214 0.028416100889 -2.9755399227 0.12714900076 -0.1661580056
          4.8203802109 0.5 -0.047230999917 4.7387499809 0.5 0.12298899889
          4.8432202339 0.33124399185 0.15127900243 4.5822200775 0.29958099127 -0.0073895901442
          0.98047602177 -0.18917199969 0.5 0.95045101643 -0.36442101002 0.5
          0.7291790247 -0.29900100827 0.29153800011 0.74645501375 -0.33665299416 0.5
          -4.7847399712 0.018612299114 -0.27819800377 -5 0.1004910022 -0.10199099779
          -5 -0.16616299748 -0.067754097283 -5 -0.13075700402 -0.36378800869
          1.4891799688 -0.27188199759 0.26980000734 1.6828099489 -0.15067499876 0.17043499649
          1.4679900408 -0.23194299638 -0.032342601568 1.7191100121 -0.2926889956 0.013918399811
          -3.2586500645 0.20448499918 -0.21992500126 -3.1714200974 0.28492799401 -0.5
          -3.1402900219 0.086144499481 -0.5 -3.0582199097 0.31288200617 -0.29153999686
          0.71499300003 0.033225100487 -0.28708100319 0.82831698656 0.016366999596 -0.5
          0.69139498472 -0.21342000365 -0.5 0.89200401306 -0.15874500573 -0.5
          -2.2944800854 0.10816299915 0.5 -2.2191998959 0.31082698703 0.26025301218
          -2.2189500332 0.32305899262 0.5 -2.4461400509 0.30663898587 0.5
          0.39225000143 -0.090401999652 -0.5 0.17147399485 -0.046462800354 -0.28626099229
          0.29461199045 -0.27944099903 -0.5 0.19322299957 -0.078569203615 -0.5
          -1.3341200352 0.058667398989 -0.30476099253 -1.6108299494 0.078509502113 -0.5
          -1.3918299675 -0.029553499073 -0.5 -1.3366099596 0.20833599567 -0.5
          0.14069800079 0.16885900497 -0.17604699731 0.086851902306 0.090062998235 -0.5
          -0.020521700382 0.27518200874 -0.3097819984 -0.028405899182 0.038570299745 -0.28863999248
          1.8764899969 -0.15924200416 -0.081890702248 1.9453500509 -0.087545797229 -0.2573390007
          2.0873699188 -0.15330499411 0.011435699649 1.9567300081 0.0023706499487 0.0081458101049
          -1.7690800428 0.27011099458 -0.5 -1.7309900522 0.022700900212 -0.2696749866
          -1.6463500261 0.28474900126 -0.30618798733 -1.6108299494 0.078509502113 -0.5
          3.0071001053 0.30889099836 0.30772000551 3.1800200939 0.15828900039 0.1766680032
          3.1743099689 -0.022352099419 0.31030499935 3.1938300133 0.27075499296 0.5
          1.8100399971 -0.5 -0.073667302728 1.8699899912 -0.30787700415 -0.26772201061
          1.8764899969 -0.15924200416 -0.081890702248 1.7191100121 -0.2926889956 0.013918399811
          -0.028405899182 0.038570299745 -0.28863999248 0.086851902306 0.090062998235 -0.5
          -0.020521700382 0.27518200874 -0.3097819984 -0.12994900346 0.14103500545 -0.5
          -1.0471099615 0.090339496732 -0.5 -0.96304500103 0.042934101075 -0.20367699862
          -0.92764699459 0.27740699053 -0.26456698775 -0.89940702915 0.048585001379 -0.5
          -4.3976202011 -0.16255900264 0.25912800431 -4.5181999207 0.028785899282 0.28230598569
          -4.5685501099 -0.12892700732 -0.0029087499715 -4.411260128 -0.00020594299713 -0.0010824199999
          -4.7695999146 0.26816898584 -0.5 -4.7795901299 0.30410701036 -0.28243198991
          -4.6261501312 0.17262099683 -0.1935839951 -4.7847399712 0.018612299114 -0.27819800377
          4.0779399872 0.0020779399201 -0.0058176601306 4.0785198212 0.2688550055 0.022481000051
          3.867939949 0.29484701157 -0.023631099612 4.0157899857 0.23598599434 -0.23627699912
          -4.1164798737 0.5 -0.23297099769 -4.2751197815 0.5 0.02419850044
          -4.0201997757 0.5 0.0039351000451 -4.2024998665 0.29241999984 0.027058599517
          2.6889400482 0.16072399914 0.18579299748 2.4395799637 -0.026134699583 0.038382198662
          2.6219000816 -0.015453300439 0.30282199383 2.6777200699 -0.0055014099926 -0.0048864497803
          1.5954600573 -0.5 -0.26120200753 1.673140049 -0.32074698806 -0.32187500596
          1.8699899912 -0.30787700415 -0.26772201061 1.8100399971 -0.5 -0.073667302728
          2.0364201069 0.5 -0.27101698518 2.2007598877 0.32477998734 -0.29550099373
          2.1893599033 0.29838100076 -0.5 2.0216500759 0.22515000403 -0.27024498582
          -0.18628300726 -0.26750600338 -0.029726099223 -0.014450499788 -0.12391400337 -0.11072800308
          0.10427799821 -0.31776800752 -0.01549869962 -0.014323200099 -0.10396199673 0.093425601721
          -1.670410037 -0.23073199391 -0.21768200397 -1.730610013 -0.00066968100145 -0.0049977498129
          -1.728489995 -0.2819840014 0.029070099816 -1.9544999599 -0.19884000719 -0.16746899486
          -1.9903299809 0.30669298768 -0.0096472296864 -1.9655499458 0.017111200839 0.015656199306
          -2.182790041 0.25494199991 0.029647100717 -1.9560199976 0.18910500407 0.17773799598
          -2.4605801105 -0.31329700351 0.0017525800504 -2.6140599251 -0.2892279923 0.31681698561
          -2.4806699753 -0.5 0.25502499938 -2.5808300972 -0.5 0.066097401083
          1.3224300146 0.5 -0.35919898748 1.3762099743 0.5 -0.1532869935
          1.4860899448 0.23913800716 -0.2658199966 1.2041200399 0.21308499575 -0.18568199873
          1.9609899521 0.27691298723 0.076514601707 2.1986699104 0.16770100594 0.18445199728
          2.1185901165 0.5 0.19517299533 2.2155299187 0.29384601116 -0.016047000885
          3.730230093 0.5 0.19785399735 3.7404100895 0.5 0.40195301175
          3.9605000019 0.5 0.34884899855 3.730809927 0.29602000117 0.3136009872
          4.2713398933 0.33074501157 0.5 4.1271901131 0.47496300936 0.5
          4.1193199158 0.19485099614 0.5 4.1333699226 0.29578199983 0.28484800458
          3.8962900639 0.45250400901 -0.5 4.0096001625 0.5 -0.34201300144
          4.091340065 0.41007000208 -0.5 4.0157899857 0.23598599434 -0.23627699912
          -0.94314199686 -0.25431698561 0.040656600147 -1.1246000528 -0.21291700006 0.24169400334
          -0.87598198652 -0.27951401472 0.27214699984 -1.1115700006 -0.5 0.061790000647
          1.2388900518 -0.17473700643 -0.16655999422 1.4914300442 0.0569607988 -0.04182960093
          1.2553399801 0.02869570069 -0.044535700232 1.3415499926 0.046351000667 -0.2966940105
          -3.7506599426 -0.28654700518 -0.026961300522 -3.7200200558 -0.5 0.14442199469
          -3.6202099323 -0.16945900023 0.16224400699 -3.5598199368 -0.5 0.038439199328
          -0.70620900393 0.037291798741 0.28922000527 -0.87598198652 -0.27951401472 0.27214699984
          -0.70902901888 -0.081924401224 0.5 -0.65928399563 -0.29948800802 0.30083200336
          -0.70902901888 -0.081924401224 0.5 -0.55561101437 -0.26461198926 0.5
          -0.51341497898 -0.020596599206 0.5 -0.65928399563 -0.29948800802 0.30083200336
          -4.697619915 0.5 -0.22214700282 -4.6541099548 0.5 -0.42925700545
          -4.9034900665 0.5 -0.2928520143 -4.7795901299 0.30410701036 -0.28243198991
          -0.66166800261 -0.5 0.21156099439 -0.87598198652 -0.27951401472 0.27214699984
          -0.63264602423 -0.32936599851 0.064718000591 -0.65928399563 -0.29948800802 0.30083200336
          -1.3262499571 0.2814899981 -0.050565201789 -1.2951300144 0.045372098684 -0.065485596657
          -1.1753100157 0.18597100675 -0.21642799675 -1.4892100096 0.17613700032 -0.19808200002
          -1.1753100157 0.18597100675 -0.21642799675 -1.3262499571 0.2814899981 -0.050565201789
          -1.0172100067 0.25485399365 -0.020222399384 -1.2951300144 0.045372098684 -0.065485596657
          -3.1584899426 -0.5 -0.16631600261 -3.1703898907 -0.28369298577 0.029881799594
          -3.3001599312 -0.5 -0.014418800361 -3.4054200649 -0.24873800576 -0.029902800918
          1.2553399801 0.02869570069 -0.044535700232 1.4914300442 0.0569607988 -0.04182960093
          1.2041200399 0.21308499575 -0.18568199873 1.3415499926 0.046351000667 -0.2966940105
          -0.11357299984 -0.14485199749 -0.33142700791 -0.24800799787 0.0088232699782 -0.29918900132
          -0.014450499788 -0.12391400337 -0.11072800308 -0.29398798943 -0.19200000167 -0.2282319963
          -3.012720108 0.29143700004 0.30083501339 -3.0836999416 0.5 0.28708401322
          -3.2058999538 0.30942299962 0.5 -3.2776799202 0.5 0.32763698697
          -0.94353401661 0.5 -0.43025898933 -1.2537200451 0.5 -0.48933500051
          -1.0104800463 0.5 -0.2601659894 -1.2071399689 0.32934400439 -0.5
          -1.0519599915 0.24375100434 -0.5 -0.92764699459 0.27740699053 -0.26456698775
          -1.1753100157 0.18597100675 -0.21642799675 -1.2071399689 0.32934400439 -0.5
          -0.33964401484 -0.12936100364 0.5 -0.16119599342 0.084271103144 0.32078498602
          -0.30416700244 0.12715099752 0.5 -0.35255399346 0.016716400161 0.25871700048
          -2.5264899731 0.5 -0.0051567801274 -2.6367399693 0.26534798741 0.078260503709
          -2.5066099167 0.5 0.23033800721 -2.4123599529 0.30793198943 -0.0017855500337
          3.790719986 -0.5 -0.15779900551 3.8067100048 -0.5 0.09490519762
          3.8334798813 -0.29951399565 -0.035472199321 3.9580099583 -0.5 0.00037011300446
          -2.8985300064 0.5 0.19352899492 -3.0080699921 0.29238799214 0.028416100889
          -3.012720108 0.29143700004 0.30083501339 -2.8269600868 0.33847901225 0.099728599191
          -1.1475800276 0.23044300079 0.22876000404 -1.3727099895 0.30601900816 0.28291600943
          -1.174579978 0.41473001242 0.5 -1.241230011 0.18273699284 0.5
          -4.6742100716 -0.19076700509 0.15933300555 -4.7982001305 -0.27365100384 -0.020341299474
          -4.794549942 -0.32775598764 0.30355900526 -4.8312702179 -0.5 0.1501930058
          1.3350299597 0.5 0.26320800185 1.4897999763 0.29271999002 0.26752799749
          1.4934600592 0.40915301442 0.5 1.626060009 0.5 0.34106299281
          -2.9412100315 -0.31262499094 -0.011466300115 -3.1692500114 -0.17956000566 -0.18042400479
          -3.1584899426 -0.5 -0.16631600261 -3.0114998817 -0.30267500877 -0.29305499792
          -2.9412100315 -0.31262499094 -0.011466300115 -2.8483600616 -0.1823129952 -0.18523199856
          -3.0114998817 -0.30267500877 -0.29305499792 -2.9510200024 -0.5 -0.15621200204
          3.4346001148 0.010584499687 0.0013051299611 3.4734098911 0.21108800173 -0.2205349952
          3.6228199005 0.064896397293 -0.30187800527 3.6606800556 0.057222399861 0.047008000314
          -0.75955200195 0.2530399859 -0.5 -1.0519599915 0.24375100434 -0.5
          -0.92764699459 0.27740699053 -0.26456698775 -0.89940702915 0.048585001379 -0.5
          -3.8885200024 0.43526899815 -0.5 -3.7156999111 0.29170098901 -0.33228498697
          -3.8300800323 0.22917799652 -0.5 -3.8989500999 0.24744200706 -0.23554000258
          0.22253899276 0.29792100191 -0.30861100554 0.086851902306 0.090062998235 -0.5
          -0.020521700382 0.27518200874 -0.3097819984 0.14069800079 0.16885900497 -0.17604699731
          2.8429698944 0.28180000186 -0.27394500375 2.6540100574 0.30316799879 0.029222900048
          2.8604700565 0.28147599101 -0.024887500331 2.6477799416 0.16645799577 -0.17383100092
          -0.59884798527 -0.5 -0.081100203097 -0.66166800261 -0.5 0.21156099439
          -0.63264602423 -0.32936599851 0.064718000591 -0.3753170073 -0.5 0.14234599471
          -3.3937699795 -0.1384550035 -0.5 -3.5095100403 -0.29471600056 -0.5
          -3.5521500111 0.0046129701659 -0.5 -3.6039199829 -0.1486119926 -0.1880979985
          1.8789199591 -0.10240700096 0.16247299314 2.0873699188 -0.15330499411 0.011435699649
          2.1778399944 -0.17710599303 0.19188399613 1.9551000595 0.040498699993 0.28340399265
          3.4532198906 -0.27570098639 -0.28086999059 3.2362499237 -0.1912920028 -0.17273800075
          3.2248399258 -0.5 -0.3111949861 3.1227400303 -0.30917099118 -0.31313300133
          -3.8989500999 0.24744200706 -0.23554000258 -4.0830402374 0.30948498845 -0.29728299379
          -3.7526800632 0.5 -0.34413599968 -3.822799921 0.5 -0.16184200346
          -2.3618400097 -0.32881900668 0.3184300065 -2.3103899956 -0.47168698907 0.5
          -2.268130064 -0.5 0.23155200481 -2.4806699753 -0.5 0.25502499938
          2.6973400116 0.5 -0.29229000211 2.6394400597 0.5 -0.0548616983
          2.8429698944 0.28180000186 -0.27394500375 2.6477799416 0.16645799577 -0.17383100092
          -3.8861699104 0.22745600343 0.24729199708 -3.971339941 0.069716103375 0.5
          -3.7759699821 0.12645199895 0.5 -3.776599884 -0.0024208100513 0.27819898725
          1.4356100559 0.30725300312 0.014958400279 1.7132099867 0.18727500737 0.17964400351
          1.4909499884 0.035039100796 0.2443370074 1.4897999763 0.29271999002 0.26752799749
          -5 -0.26007699966 0.21836000681 -4.794549942 -0.32775598764 0.30355900526
          -4.8052501678 -0.030253799632 0.27854898572 -4.6742100716 -0.19076700509 0.15933300555
          -1.1828099489 0.5 -0.19919799268 -1.4628200531 0.5 -0.09861010313
          -1.3363499641 0.5 0.056991901249 -1.3262499571 0.2814899981 -0.050565201789
          -1.670410037 -0.23073199391 -0.21768200397 -1.3521399498 -0.29692700505 -0.29181501269
          -1.4028300047 -0.15640300512 -0.13328300416 -1.5251499414 -0.076651901007 -0.31482899189
          -3.776599884 -0.0024208100513 0.27819898725 -3.8883500099 -0.22696000338 0.22436200082
          -3.6202099323 -0.16945900023 0.16224400699 -3.8818199635 0.0094203203917 -0.0044903801754
          -1.1828099489 0.5 -0.19919799268 -1.3363499641 0.5 0.056991901249
          -1.0912200212 0.5 0.03137230128 -1.3262499571 0.2814899981 -0.050565201789
          2.4395799637 -0.026134699583 0.038382198662 2.6354598999 -0.29880100489 0.010485099629
          2.4458899498 -0.25059598684 0.23923400044 2.7103700638 -0.17533199489 0.17696000636
          -4.8396000862 0.080449603498 -0.5 -4.7695999146 0.26816898584 -0.5
          -4.7795901299 0.30410701036 -0.28243198991 -5 0.09418129921 -0.34129801393
          4.3434801102 -0.13885499537 0.17381000519 4.1160001755 -0.25597798824 -0.023964699358
          4.0779399872 0.0020779399201 -0.0058176601306 4.039850235 -0.20272299647 0.21478900313
          -1.2071299553 -0.056219801307 0.5 -1.432109952 0.071380198002 0.5
          -1.3560899496 -0.21440200508 0.5 -1.334980011 -0.066682696342 0.27562999725
          -2.8985300064 0.5 0.19352899492 -3.2138299942 0.5 0.12549799681
          -3.0836999416 0.5 0.28708401322 -3.0080699921 0.29238799214 0.028416100889
          -0.29486501217 0.23727999628 0.084538802505 -0.55149698257 0.19303299487 0.18695600331
          -0.40286201239 -0.0046954802237 -0.0054140798748 -0.47131600976 0.32570299506 -0.023170199245
          1.6074999571 0.030789300799 -0.26509699225 1.4914300442 0.0569607988 -0.04182960093
          1.3415499926 0.046351000667 -0.2966940105 1.4860899448 0.23913800716 -0.2658199966
          1.1263699532 -0.31314399838 0.27022001147 1.0404800177 -0.5 0.42839100957
          0.92648899555 -0.5 0.31108599901 0.95045101643 -0.36442101002 0.5
          1.8512899876 -0.25720700622 0.29749301076 1.8255000114 -0.5 0.10807599872
          1.9245300293 -0.27816799283 0.073713801801 1.7191100121 -0.2926889956 0.013918399811
          -4.3720297813 -0.5 0.12119200081 -4.2715802193 -0.32873600721 0.20494799316
          -4.0987300873 -0.5 0.24074499309 -4.3996100426 -0.5 0.31058299541
          -2.1895999908 0.28031998873 -0.27681100368 -2.1567900181 0.5 -0.46172600985
          -1.9816099405 0.27960699797 -0.5 -1.9338200092 0.5 -0.29581001401
          4.5567698479 0.040265500546 -0.029345599934 4.3127498627 0.19265699387 0.16710400581
          4.5015702248 0.045086801052 0.27461698651 4.317220211 0.013630899601 -0.032561101019
          2.9282898903 0.5 -0.19310599566 2.8429698944 0.28180000186 -0.27394500375
          3.0563700199 0.30440598726 -0.29042899609 3.0176899433 0.33451101184 -0.5
          -2.4500799179 -0.18146699667 0.1914049983 -2.1791601181 0.066247500479 0.26825898886
          -2.4325098991 0.0032291798852 0.31787699461 -2.187210083 -0.061865199357 0.039609499276
          4.1160001755 -0.25597798824 -0.023964699358 3.8334798813 -0.29951399565 -0.035472199321
          4.039850235 -0.20272299647 0.21478900313 3.8753499985 -0.34310999513 0.22761000693
          -3.822799921 0.5 -0.16184200346 -3.9890100956 0.24387900531 0.0062287501059
          -3.8989500999 0.24744200706 -0.23554000258 -4.0201997757 0.5 0.0039351000451
          0.57893800735 0.29019400477 -0.5 0.49744200706 0.32136800885 -0.31016400456
          0.73280501366 0.2939440012 -0.30173701048 0.67495399714 0.10961399972 -0.5
          1.0327399969 -0.5 -0.23253199458 1.0404800177 -0.5 0.084503702819
          0.77619498968 -0.5 -0.05961849913 0.96319800615 -0.25574100018 -0.086030602455
          3.4916698933 -0.37139999866 -0.5 3.6315801144 -0.5 -0.39594000578
          3.4290299416 -0.5 -0.34937500954 3.4532198906 -0.27570098639 -0.28086999059
          3.4916698933 -0.37139999866 -0.5 3.4951400757 -0.11613500118 -0.5
          3.7514400482 -0.26456600428 -0.5 3.4532198906 -0.27570098639 -0.28086999059
          3.6450901031 -0.17131699622 -0.19211299717 3.5628299713 -0.5 -0.19047999382
          3.4532198906 -0.27570098639 -0.28086999059 3.4506099224 -0.25270500779 -0.04623780027
          -3.119879961 0.056279499084 0.0078261103481 -2.8607199192 0.16806200147 0.1988620013
          -3.177740097 0.19153399765 0.19352599978 -3.0080699921 0.29238799214 0.028416100889
          0.68863600492 -0.5 0.092009201646 0.59722298384 -0.5 0.24278099835
          0.5135999918 -0.5 0.087553098798 0.58512401581 -0.18639500439 0.18318599463
          -2.6441700459 0.0031107501127 0.0051095401868 -2.8699100018 0.034952599555 0.013808799908
          -2.8607199192 0.16806200147 0.1988620013 -2.7145900726 -0.082542397082 0.279302001
          -0.33964401484 -0.12936100364 0.5 -0.35255399346 0.016716400161 0.25871700048
          -0.30416700244 0.12715099752 0.5 -0.51341497898 -0.020596599206 0.5
          -3.8885200024 0.43526899815 -0.5 -3.7526800632 0.5 -0.34413599968
          -3.7156999111 0.29170098901 -0.33228498697 -3.8989500999 0.24744200706 -0.23554000258
          -1.0750999451 -0.011404699646 0.007108009886 -1.1753100157 0.18597100675 -0.21642799675
          -1.2951300144 0.045372098684 -0.065485596657 -1.1722400188 -0.078797601163 -0.24050499499
          -1.0750999451 -0.011404699646 0.007108009886 -1.2951300144 0.045372098684 -0.065485596657
          -1.1855100393 -0.25224798918 -0.0140108997 -1.1722400188 -0.078797601163 -0.24050499499
          -4.794549942 -0.32775598764 0.30355900526 -4.7207899094 -0.18141900003 0.5
          -4.5459198952 -0.24766799808 0.5 -4.7161898613 -0.5 0.43861299753
          3.2362499237 -0.1912920028 -0.17273800075 2.9524600506 -0.22408300638 -0.21185599267
          2.94404006 -0.24824899435 0.048307999969 3.18708992 -0.32281601429 -0.009787529707
          -1.8430000544 -0.33087998629 -0.29164901376 -1.9762599468 -0.5 -0.39294800162
          -2.0754799843 -0.5 -0.065173096955 -1.7730799913 -0.5 -0.18303699791
          2.9622399807 -0.48268601298 0.5 2.797960043 -0.29616799951 0.32714900374
          3.0828099251 -0.5 0.29510200024 2.9103798866 -0.24695399404 0.5
          -1.5096600056 -0.035843800753 0.024828599766 -1.728489995 -0.2819840014 0.029070099816
          -1.5302300453 -0.20296399295 0.1751369983 -1.3964400291 -0.3062709868 0.030771600083
          -1.5302300453 -0.20296399295 0.1751369983 -1.728489995 -0.2819840014 0.029070099816
          -1.5047199726 -0.5 0.018165400252 -1.3964400291 -0.3062709868 0.030771600083
          -0.66166800261 -0.5 0.21156099439 -0.87598198652 -0.27951401472 0.27214699984
          -0.80443400145 -0.5 0.34285399318 -0.91965401173 -0.5 0.069327197969
          5 -0.29155600071 -0.27424201369 5 -0.14510799944 -0.050927400589
          4.814139843 -0.29069000483 0.014058699831 4.6962199211 -0.21809899807 -0.17522199452
          -0.57590299845 0.34252899885 -0.5 -0.63783198595 0.084412999451 -0.319272995
          -0.68140697479 0.28639298677 -0.28938999772 -0.47644600272 0.21734400094 -0.22011299431
          -0.93832302094 -0.045258000493 0.24930199981 -1.2071299553 -0.056219801307 0.5
          -1.0791499615 0.061705000699 0.5 -0.93892097473 -0.041356798261 0.5
          -4.411260128 -0.00020594299713 -0.0010824199999 -4.3976202011 -0.16255900264 0.25912800431
          -4.2407898903 -0.014909300022 0.29183000326 -4.1423802376 -0.18350799382 0.11192400008
          2.8704299927 -0.5 -0.1951110065 2.7792201042 -0.32771399617 -0.28562399745
          2.809910059 -0.30858701468 -0.088228099048 2.750590086 -0.5 -0.077522300184
          2.3865699768 -0.46860298514 0.5 2.2103800774 -0.5 0.38068500161
          2.4503700733 -0.5 0.32925000787 2.2669200897 -0.32125800848 0.30331799388
          -2.7104799747 -0.5 0.29420700669 -2.7625899315 -0.27350199223 0.5
          -2.9220399857 -0.26491099596 0.30408999324 -2.6140599251 -0.2892279923 0.31681698561
          2.6700599194 -0.18108099699 -0.17258299887 2.6354598999 -0.29880100489 0.010485099629
          2.809910059 -0.30858701468 -0.088228099048 2.6533699036 -0.5 -0.22465799749
          0.36774501204 -0.27583301067 0.050296399742 0.58512401581 -0.18639500439 0.18318599463
          0.5135999918 -0.5 0.087553098798 0.37961798906 -0.27483201027 0.3045360148
          2.7792201042 -0.32771399617 -0.28562399745 2.6700599194 -0.18108099699 -0.17258299887
          2.9524600506 -0.22408300638 -0.21185599267 2.809910059 -0.30858701468 -0.088228099048
          0.21745100617 -0.25824698806 0.5 0.25244501233 -0.012676700018 0.29410201311
          0.03605210036 -0.1630679965 0.5 0.15296399593 -0.18104599416 0.18370200694
          -4.3030099869 0.0012274599867 0.5 -4.5459198952 -0.24766799808 0.5
          -4.237349987 -0.30583998561 0.5 -4.3976202011 -0.16255900264 0.25912800431
          0.42797398567 -0.5 -0.20191599429 0.39225000143 -0.46847999096 -0.5
          0.60203802586 -0.41157200933 -0.5 0.52369099855 -0.25701698661 -0.29001700878
          -2.4500799179 -0.18146699667 0.1914049983 -2.4325098991 0.0032291798852 0.31787699461
          -2.4091000557 0.010666499846 0.010404500179 -2.187210083 -0.061865199357 0.039609499276
          -4.0954899788 -0.1243320033 0.5 -4.3030099869 0.0012274599867 0.5
          -4.237349987 -0.30583998561 0.5 -4.2407898903 -0.014909300022 0.29183000326
          -4.6541099548 0.5 -0.42925700545 -4.8520002365 0.4750970006 -0.5
          -4.7795901299 0.30410701036 -0.28243198991 -4.7695999146 0.26816898584 -0.5
          -4.0954899788 -0.1243320033 0.5 -4.0238199234 -0.033451199532 0.28527000546
          -4.2407898903 -0.014909300022 0.29183000326 -4.0945601463 -0.28051298857 0.31798601151
          0.057354498655 0.2768329978 0.30196899176 -0.10846299678 0.5 0.18573200703
          -0.16925099492 0.29148900509 0.27573001385 -0.021123599261 0.2901929915 -0.037268299609
          3.5110299587 -0.5 0.32628598809 3.4722599983 -0.22174499929 0.20733100176
          3.4452700615 -0.38378500938 0.5 3.2869899273 -0.28170898557 0.32561299205
          4.0157899857 0.23598599434 -0.23627699912 4.0785198212 0.2688550055 0.022481000051
          4.2944598198 0.20695400238 -0.17472800612 4.0779399872 0.0020779399201 -0.0058176601306
          -0.6270070076 -0.18018999696 -0.18880400062 -0.63783198595 0.084412999451 -0.319272995
          -0.46267700195 -0.020818000659 -0.27643701434 -0.62403798103 0.035430200398 0.037675399333
          0.25142499804 0.20395800471 0.20601199567 0.057354498655 0.2768329978 0.30196899176
          0.028599999845 -0.025005400181 0.30730199814 -0.042902801186 0.13622699678 0.15243600309
          -3.3868999481 0.28687500954 0.25560098886 -3.6287798882 0.30937200785 0.33959800005
          -3.6247899532 0.5 0.17990300059 -3.475399971 0.5 0.31425100565
          1.298789978 -0.15092399716 0.16408100724 1.4679900408 -0.23194299638 -0.032342601568
          1.1665500402 -0.30232200027 0.032807700336 1.3733700514 -0.33255699277 0.11544699967
          2.8604700565 0.28147599101 -0.024887500331 2.6777200699 -0.0055014099926 -0.0048864497803
          2.9201900959 0.0039753098972 -0.016150400043 2.6477799416 0.16645799577 -0.17383100092
          1.3415499926 0.046351000667 -0.2966940105 1.5757000446 -0.01348510012 -0.5
          1.2840600014 -0.15874500573 -0.5 1.4673299789 -0.16130299866 -0.30513200164
          4.737279892 -0.20036800206 -0.5 5 -0.058660898358 -0.40873599052
          4.9127898216 -0.40444201231 -0.5 4.8028302193 -0.29806599021 -0.33157899976
          -0.56736600399 -0.5 -0.39558899403 -0.63522601128 -0.32412400842 -0.5
          -0.77074998617 -0.30250000954 -0.3132340014 -0.7991899848 -0.42665201426 -0.5
          -2.9183399677 -0.016215600073 0.29276099801 -2.8607199192 0.16806200147 0.1988620013
          -2.8798100948 0.024562800303 0.5 -3.012720108 0.29143700004 0.30083501339
          0.95045101643 -0.36442101002 0.5 0.84539800882 -0.5 0.45313599706
          0.92648899555 -0.5 0.31108599901 0.7291790247 -0.29900100827 0.29153800011
          1.9567300081 0.0023706499487 0.0081458101049 2.2021598816 0.01178739965 -0.018270699307
          2.0588099957 0.16667899489 -0.072469100356 1.9453500509 -0.087545797229 -0.2573390007
          -1.0002299547 0.5 0.26042699814 -1.0912200212 0.5 0.03137230128
          -1.2430000305 0.5 0.28215000033 -1.1475800276 0.23044300079 0.22876000404
          -1.0002299547 0.5 0.26042699814 -1.2430000305 0.5 0.28215000033
          -1.174579978 0.41473001242 0.5 -1.1475800276 0.23044300079 0.22876000404
          -0.93832302094 -0.045258000493 0.24930199981 -0.87598198652 -0.27951401472 0.27214699984
          -0.70902901888 -0.081924401224 0.5 -0.70620900393 0.037291798741 0.28922000527
          -3.0681700706 -0.022411899641 -0.31216698885 -3.387419939 -0.020452000201 -0.26496699452
          -3.1692500114 -0.17956000566 -0.18042400479 -3.1430599689 -0.16607600451 -0.5
          -5 0.09418129921 -0.34129801393 -5 0.1004910022 -0.10199099779
          -4.7847399712 0.018612299114 -0.27819800377 -5 -0.13075700402 -0.36378800869
          -1.890920043 -0.16450600326 -0.5 -2.1227400303 -0.27935901284 -0.5
          -2.0815498829 -0.33450999856 -0.28891399503 -1.868549943 -0.36587700248 -0.5
          -1.5096600056 -0.035843800753 0.024828599766 -1.334980011 -0.066682696342 0.27562999725
          -1.5232800245 0.099855400622 0.30515301228 -1.4028999805 0.13422000408 0.12791000307
          -2.011950016 0.41811999679 0.5 -2.0084600449 0.5 0.30924999714
          -2.0332100391 0.28143399954 0.34608799219 -1.8413699865 0.28546500206 0.5
          -5 0.32793700695 0.27663400769 -4.9243597984 0.5 0.31349301338
          -4.7674899101 0.33730000257 0.27226099372 -5 0.3144119978 0.46769100428
          0.62789398432 -0.5 -0.19392700493 0.60203802586 -0.41157200933 -0.5
          0.74148601294 -0.5 -0.35863500834 0.52369099855 -0.25701698661 -0.29001700878
          -4.2659602165 0.28228399158 0.5 -4.4165802002 0.22745400667 0.23878499866
          -4.5152201653 0.17846100032 0.5 -4.3030099869 0.0012274599867 0.5
          3.790719986 -0.5 -0.15779900551 3.8334798813 -0.29951399565 -0.035472199321
          4.0018801689 -0.5 -0.21358500421 3.9580099583 -0.5 0.00037011300446
          -3.5521500111 0.0046129701659 -0.5 -3.6039199829 -0.1486119926 -0.1880979985
          -3.5893199444 0.032997198403 -0.29434099793 -3.3937699795 -0.1384550035 -0.5
          -5 -0.16616299748 -0.067754097283 -5 -0.13075700402 -0.36378800869
          -5 -0.33370301127 -0.29875099659 -4.7819399834 -0.28898400068 -0.32071700692
          2.3120000362 -0.058240499347 -0.5 2.2094399929 -0.21062499285 -0.5
          2.2389800549 -0.33469301462 -0.31423199177 2.4597499371 -0.30076900125 -0.3059630096
          1.4914300442 0.0569607988 -0.04182960093 1.4909499884 0.035039100796 0.2443370074
          1.6828099489 -0.15067499876 0.17043499649 1.4679900408 -0.23194299638 -0.032342601568
          0.27028900385 -0.5 -0.35754400492 0.39225000143 -0.46847999096 -0.5
          0.52369099855 -0.25701698661 -0.29001700878 0.29461199045 -0.27944099903 -0.5
          -3.9890100956 0.24387900531 0.0062287501059 -4.1479997635 0.1524810046 0.18773500621
          -3.8861699104 0.22745600343 0.24729199708 -3.8818199635 0.0094203203917 -0.0044903801754
          3.6032299995 -0.0550327003 0.29886201024 3.3886699677 0.01943529956 0.25713300705
          3.3009901047 0.050491899252 0.5 3.4012000561 -0.17302200198 0.5
          4.2686200142 -0.36589500308 -0.5 4.4887499809 -0.30371600389 -0.5
          4.4999699593 -0.30107301474 -0.267922014 4.3206100464 -0.13641299307 -0.5
          4.3434801102 -0.13885499537 0.17381000519 4.2926101685 0.022265100852 0.30176800489
          4.0779399872 0.0020779399201 -0.0058176601306 4.317220211 0.013630899601 -0.032561101019
          -3.822799921 0.5 -0.16184200346 -3.7612600327 0.27116200328 0.015408799984
          -3.9890100956 0.24387900531 0.0062287501059 -4.0201997757 0.5 0.0039351000451
          -0.59533298016 -0.13490399718 -0.5 -0.63783198595 0.084412999451 -0.319272995
          -0.55288797617 0.023504899815 -0.5 -0.46267700195 -0.020818000659 -0.27643701434
          -0.014323200099 -0.10396199673 0.093425601721 -0.014450499788 -0.12391400337 -0.11072800308
          0.2199189961 -0.15206000209 -0.010414100252 0.12687399983 0.024941600859 0.019101899117
          -3.7612600327 0.27116200328 0.015408799984 -4.0201997757 0.5 0.0039351000451
          -3.8539500237 0.5 0.19824199378 -3.9890100956 0.24387900531 0.0062287501059
          2.7792201042 -0.32771399617 -0.28562399745 2.750590086 -0.5 -0.077522300184
          2.8704299927 -0.5 -0.1951110065 2.6533699036 -0.5 -0.22465799749
          -0.66166800261 -0.5 0.21156099439 -0.65928399563 -0.29948800802 0.30083200336
          -0.63264602423 -0.32936599851 0.064718000591 -0.47073799372 -0.22246700525 0.21898700297
          -0.63264602423 -0.32936599851 0.064718000591 -0.65928399563 -0.29948800802 0.30083200336
          -0.74051898718 -0.13983599842 0.1276730001 -0.47073799372 -0.22246700525 0.21898700297
          -3.6039199829 -0.1486119926 -0.1880979985 -3.5974299908 0.015700999647 0.0042460002005
          -3.353219986 0.018101999536 -0.0069937198423 -3.4054200649 -0.24873800576 -0.029902800918
          -1.7749300003 -0.093701399863 0.5 -1.8168400526 0.14203999937 0.32622399926
          -1.9649800062 -0.0049698902294 0.29592001438 -1.6999100447 -0.016917800531 0.25771600008
          1.1263699532 -0.31314399838 0.27022001147 1.1665500402 -0.30232200027 0.032807700336
          1.298789978 -0.15092399716 0.16408100724 1.0750000477 -0.14948399365 0.12495800108
          3.5617899895 0.20520099998 0.20095099509 3.6032299995 -0.0550327003 0.29886201024
          3.6606800556 0.057222399861 0.047008000314 3.3886699677 0.01943529956 0.25713300705
          4.289440155 0.31779500842 -0.5 4.1898999214 0.32223001122 -0.31539100409
          4.2950100899 0.5 -0.35224300623 4.501060009 0.27867999673 -0.21826599538
          -4.2407898903 -0.014909300022 0.29183000326 -4.3030099869 0.0012274599867 0.5
          -4.1556100845 0.12476799637 0.5 -4.0954899788 -0.1243320033 0.5
          -3.177740097 0.19153399765 0.19352599978 -3.353219986 0.018101999536 -0.0069937198423
          -3.3652899265 0.29221200943 0.018539199606 -3.40102005 0.049610700458 0.26974400878
          -0.26246398687 0.5 -0.27721399069 -0.30496299267 0.34233599901 -0.13862299919
          -0.25742098689 0.29623898864 -0.3442530036 -0.43139898777 0.5 -0.15948499739
          -4.7836899757 -0.0049985698424 -0.0062314402312 -4.8052501678 -0.030253799632 0.27854898572
          -4.6812400818 0.14698000252 0.1767770052 -4.6742100716 -0.19076700509 0.15933300555
          0.94293701649 0.27613300085 0.5 0.69564402103 0.31359699368 0.28978401423
          0.8470069766 0.5 0.36908501387 0.76468199492 0.37051400542 0.5
          0.29461199045 -0.27944099903 -0.5 0.27188199759 -0.21608300507 -0.19496400654
          0.27028900385 -0.5 -0.35754400492 0.02034159936 -0.29206499457 -0.27554398775
          1.6337100267 -0.2680259943 0.5 1.4891799688 -0.27188199759 0.26980000734
          1.4357299805 -0.35067200661 0.5 1.6531300545 -0.5 0.42902299762
          -5 -0.004447159823 0.13623799384 -5 -0.26007699966 0.21836000681
          -4.8052501678 -0.030253799632 0.27854898572 -4.6742100716 -0.19076700509 0.15933300555
          -4.7836899757 -0.0049985698424 -0.0062314402312 -5 -0.004447159823 0.13623799384
          -4.8052501678 -0.030253799632 0.27854898572 -4.6742100716 -0.19076700509 0.15933300555
          -0.70902901888 -0.081924401224 0.5 -0.55561101437 -0.26461198926 0.5
          -0.65928399563 -0.29948800802 0.30083200336 -0.74638098478 -0.26905399561 0.5
          1.2388900518 -0.17473700643 -0.16655999422 1.2553399801 0.02869570069 -0.044535700232
          1.0260499716 0.011771400459 0.016185000539 1.139539957 -0.036767199636 -0.30390501022
          1.71875 0.012455300428 0.32105600834 1.9551000595 0.040498699993 0.28340399265
          1.8512899876 -0.25720700622 0.29749301076 1.8240200281 -0.074077397585 0.5
          1.5800199509 0.5 0.11975900084 1.3762099743 0.5 -0.1532869935
          1.2285900116 0.5 1.5277299099e-05 1.4356100559 0.30725300312 0.014958400279
          -0.014323200099 -0.10396199673 0.093425601721 0.12687399983 0.024941600859 0.019101899117
          0.15296399593 -0.18104599416 0.18370200694 0.028599999845 -0.025005400181 0.30730199814
          1.5854899883 0.5 -0.19192999601 1.4860899448 0.23913800716 -0.2658199966
          1.3762099743 0.5 -0.1532869935 1.4356100559 0.30725300312 0.014958400279
          2.9524600506 -0.22408300638 -0.21185599267 2.6700599194 -0.18108099699 -0.17258299887
          2.6635499001 -0.0075318100862 -0.31723999977 2.8999099731 0.041673701257 -0.29681798816
          -1.728489995 -0.2819840014 0.029070099816 -1.9655499458 0.017111200839 0.015656199306
          -1.9215400219 -0.19377499819 0.17684599757 -1.9544999599 -0.19884000719 -0.16746899486
          0.75085902214 -0.045475300401 0.28253901005 0.58512401581 -0.18639500439 0.18318599463
          0.58827602863 -0.023083500564 0.03204099834 0.46630200744 0.046083901078 0.25881299376
          -2.182790041 0.25494199991 0.029647100717 -2.187210083 -0.061865199357 0.039609499276
          -2.1791601181 0.066247500479 0.26825898886 -1.9655499458 0.017111200839 0.015656199306
          -1.9655499458 0.017111200839 0.015656199306 -2.0033299923 0.17082899809 -0.16009199619
          -1.730610013 -0.00066968100145 -0.0049977498129 -1.7420699596 0.2584669888 -0.11043199897
          3.1227400303 -0.30917099118 -0.31313300133 3.18708992 -0.32281601429 -0.009787529707
          3.0969901085 -0.5 -0.1024639979 2.9524600506 -0.22408300638 -0.21185599267
          -2.4091000557 0.010666499846 0.010404500179 -2.187210083 -0.061865199357 0.039609499276
          -2.2719900608 -0.32766199112 0.080448098481 -2.4500799179 -0.18146699667 0.1914049983
          4.8106999397 -0.29430899024 0.31109198928 4.6142997742 -0.33187198639 0.5
          4.5328397751 -0.5 0.28382301331 4.4824900627 -0.2778429985 0.28902798891
          -0.55149698257 0.19303299487 0.18695600331 -0.86464500427 0.18405400217 0.1796399951
          -0.70620900393 0.037291798741 0.28922000527 -0.62403798103 0.035430200398 0.037675399333
          1.4891799688 -0.27188199759 0.26980000734 1.4679900408 -0.23194299638 -0.032342601568
          1.3733700514 -0.33255699277 0.11544699967 1.7191100121 -0.2926889956 0.013918399811
          -4.1456699371 -0.049980100244 -0.5 -4.0346798897 -0.02448659949 -0.29127898812
          -4.0849199295 -0.30423098803 -0.31639400125 -4.2221798897 -0.17677399516 -0.20671699941
          -3.2586500645 0.20448499918 -0.21992500126 -3.0582199097 0.31288200617 -0.29153999686
          -3.0681700706 -0.022411899641 -0.31216698885 -2.9755399227 0.12714900076 -0.1661580056
          2.5257198811 0.5 0.37575000525 2.6206200123 0.32416799664 0.30228099227
          2.4116399288 0.33501198888 0.26824301481 2.4715499878 0.29645401239 0.5
          -4.1164798737 0.5 -0.23297099769 -4.3864398003 0.25989100337 -0.089046299458
          -4.2751197815 0.5 0.02419850044 -4.2024998665 0.29241999984 0.027058599517
          3.1800200939 0.15828900039 0.1766680032 3.3688399792 0.28460401297 0.022468499839
          3.3886699677 0.01943529956 0.25713300705 3.353579998 0.25871399045 0.31244799495
          3.353579998 0.25871399045 0.31244799495 3.0071001053 0.30889099836 0.30772000551
          3.1938300133 0.27075499296 0.5 3.1800200939 0.15828900039 0.1766680032
          3.2087500095 0.49311301112 0.5 3.3330900669 0.5 0.31517699361
          3.1938300133 0.27075499296 0.5 3.353579998 0.25871399045 0.31244799495
          -4.7982001305 -0.27365100384 -0.020341299474 -4.7693600655 -0.5 -0.069937601686
          -4.8312702179 -0.5 0.1501930058 -4.5578799248 -0.5 0.075488097966
          -2.7625899315 -0.27350199223 0.5 -2.7791500092 -0.49004599452 0.5
          -2.5125598907 -0.5 0.46646800637 -2.6140599251 -0.2892279923 0.31681698561
          -0.7856760025 -0.061230801046 -0.29652500153 -0.98949998617 -0.096335403621 -0.5
          -0.96304500103 0.042934101075 -0.20367699862 -0.93913400173 -0.20071199536 -0.20192199945
          3.8187499046 -0.026935700327 0.5 3.8831400871 -0.19151799381 0.5
          3.993170023 -0.055373799056 0.5 3.8265800476 -0.00065459497273 0.32086899877
          3.7557299137 -0.14269599319 0.12685400248 3.6032299995 -0.0550327003 0.29886201024
          3.678839922 -0.28315201402 0.29635599256 3.4722599983 -0.22174499929 0.20733100176
          -1.2071299553 -0.056219801307 0.5 -1.334980011 -0.066682696342 0.27562999725
          -1.1246000528 -0.21291700006 0.24169400334 -1.1438100338 0.013993400149 0.21154500544
          3.8265800476 -0.00065459497273 0.32086899877 3.8128800392 0.20643000305 0.5
          3.9662399292 0.2043710053 0.5 3.8187499046 -0.026935700327 0.5
          3.5617899895 0.20520099998 0.20095099509 3.3688399792 0.28460401297 0.022468499839
          3.6093900204 0.31306898594 -0.027008600533 3.541369915 0.5 0.1197900027
          3.3688399792 0.28460401297 0.022468499839 3.5255100727 0.5 -0.16535499692
          3.6093900204 0.31306898594 -0.027008600533 3.541369915 0.5 0.1197900027
          1.5000799894 -0.33221799135 -0.20392900705 1.3746500015 -0.33837598562 -0.5
          1.5757000446 -0.34572100639 -0.5 1.4673299789 -0.16130299866 -0.30513200164
          -2.9412100315 -0.31262499094 -0.011466300115 -3.0114998817 -0.30267500877 -0.29305499792
          -3.1584899426 -0.5 -0.16631600261 -2.9510200024 -0.5 -0.15621200204
          -0.7856760025 -0.061230801046 -0.29652500153 -0.77074998617 -0.30250000954 -0.3132340014
          -0.93913400173 -0.20071199536 -0.20192199945 -0.78096401691 -0.28885498643 -0.091540999711
          2.2014501095 -0.17346900702 -0.18166600168 2.4389500618 -0.2577829957 -0.080456696451
          2.4390499592 -0.057027101517 -0.2462310046 2.4597499371 -0.30076900125 -0.3059630096
          1.0077899694 -0.3314499855 -0.5 0.89200401306 -0.15874500573 -0.5
          0.82210099697 -0.27426099777 -0.29057401419 0.69139498472 -0.21342000365 -0.5
          -1.8209400177 0.5 0.2201499939 -1.8168400526 0.14203999937 0.32622399926
          -1.6647800207 0.24374599755 0.22540199757 -1.8121700287 0.32682698965 0.085832998157
          5 -0.40549901128 0.09935849905 4.7109298706 -0.5 0.037262801081
          4.814139843 -0.29069000483 0.014058699831 4.8184399605 -0.5 0.27545198798
          -1.0172100067 0.25485399365 -0.020222399384 -1.1475800276 0.23044300079 0.22876000404
          -1.1438100338 0.013993400149 0.21154500544 -1.0750999451 -0.011404699646 0.007108009886
          2.7243199348 -0.5 0.48583400249 2.4968700409 -0.3149009943 0.5
          2.6250600815 -0.5 0.26846000552 2.6795399189 -0.26569700241 0.5
          -1.3560899496 -0.21440200508 0.5 -1.334980011 -0.066682696342 0.27562999725
          -1.5496799946 -0.11574400216 0.5 -1.3444800377 -0.30236798525 0.28137201071
          -1.334980011 -0.066682696342 0.27562999725 -1.29381001 0.12503300607 0.31571400166
          -1.2071299553 -0.056219801307 0.5 -1.432109952 0.071380198002 0.5
          3.5264201164 0.5 0.31256499887 3.730809927 0.29602000117 0.3136009872
          3.730230093 0.5 0.19785399735 3.541369915 0.5 0.1197900027
          1.4891799688 -0.27188199759 0.26980000734 1.4909499884 0.035039100796 0.2443370074
          1.6828099489 -0.15067499876 0.17043499649 1.5849699974 -0.077601596713 0.5
          -2.4091000557 0.010666499846 0.010404500179 -2.187210083 -0.061865199357 0.039609499276
          -2.4605801105 -0.31329700351 0.0017525800504 -2.2719900608 -0.32766199112 0.080448098481
          3.6228199005 0.064896397293 -0.30187800527 3.7685399055 -0.11422099918 -0.34736299515
          3.7148199081 0.013914800249 -0.5 3.4951400757 -0.11613500118 -0.5
          0.36774501204 -0.27583301067 0.050296399742 0.2626529932 -0.5 -0.065027400851
          0.42797398567 -0.5 -0.20191599429 0.27188199759 -0.21608300507 -0.19496400654
          0.89871001244 -0.21273000538 0.19672900438 0.87731397152 0.049460299313 0.15210199356
          1.0260499716 0.011771400459 0.016185000539 1.0750000477 -0.14948399365 0.12495800108
          2.7771201134 0.5 0.34628498554 3.0071001053 0.30889099836 0.30772000551
          2.8473100662 0.22374899685 0.5 2.9862799644 0.5 0.48882699013
          1.0750000477 -0.14948399365 0.12495800108 0.89871001244 -0.21273000538 0.19672900438
          0.76386100054 -0.10622999817 0.089437901974 1.0260499716 0.011771400459 0.016185000539
          -3.8861699104 0.22745600343 0.24729199708 -4.0238199234 -0.033451199532 0.28527000546
          -3.971339941 0.069716103375 0.5 -3.776599884 -0.0024208100513 0.27819898725
          -3.8818199635 0.0094203203917 -0.0044903801754 -3.8034300804 0.010254199617 -0.24826699495
          -3.7506599426 -0.28654700518 -0.026961300522 -3.6039199829 -0.1486119926 -0.1880979985
          -3.8818199635 0.0094203203917 -0.0044903801754 -3.9185600281 -0.21505500376 -0.20922599733
          -3.7506599426 -0.28654700518 -0.026961300522 -3.8034300804 0.010254199617 -0.24826699495
          -0.70035898685 -0.45424199104 0.5 -0.55561101437 -0.26461198926 0.5
          -0.65928399563 -0.29948800802 0.30083200336 -0.48325100541 -0.5 0.32274898887
          3.8831400871 -0.19151799381 0.5 4.1275501251 -0.15113399923 0.5
          4.039850235 -0.20272299647 0.21478900313 4.0639600754 -0.30339500308 0.5
          3.993170023 -0.055373799056 0.5 4.1275501251 -0.15113399923 0.5
          4.0886101723 0.063145399094 0.2613709867 4.039850235 -0.20272299647 0.21478900313
          3.8831400871 -0.19151799381 0.5 3.993170023 -0.055373799056 0.5
          4.039850235 -0.20272299647 0.21478900313 4.1275501251 -0.15113399923 0.5
          -0.18946300447 0.17974199355 -0.1773750037 -0.021123599261 0.2901929915 -0.037268299609
          0.14069800079 0.16885900497 -0.17604699731 -0.169242993 0.019168399274 -0.0072063799016
          -0.18946300447 0.17974199355 -0.1773750037 -0.169242993 0.019168399274 -0.0072063799016
          -0.29486501217 0.23727999628 0.084538802505 -0.021123599261 0.2901929915 -0.037268299609
          2.5377500057 -0.050653100014 -0.5 2.4597499371 -0.30076900125 -0.3059630096
          2.5818200111 -0.276602 -0.5 2.3412098885 -0.33859500289 -0.5
          1.0667099953 0.30986699462 -0.00099666800816 0.96667098999 0.22423000634 0.21116599441
          0.71180897951 0.31379199028 -0.019653400406 0.85752302408 0.5 0.012258999981
          3.2248399258 -0.5 -0.3111949861 3.2362499237 -0.1912920028 -0.17273800075
          3.3585400581 -0.5 -0.16122399271 3.1227400303 -0.30917099118 -0.31313300133
          2.9283499718 0.5 0.14330999553 3.2171900272 0.5 -0.054951798171
          3.095690012 0.30450299382 0.0079884901643 3.1571199894 0.5 0.16706800461
          0.067414298654 0.5 0.05388860032 0.20313000679 0.30061998963 0.0047877700999
          0.086996898055 0.5 0.2632420063 0.27400401235 0.5 0.12896299362
          0.27108699083 0.5 -0.08351060003 0.20313000679 0.30061998963 0.0047877700999
          0.067414298654 0.5 0.05388860032 0.27400401235 0.5 0.12896299362
          0.98735398054 0.096338197589 0.5 0.813831985 0.031614098698 0.5
          0.81075197458 0.14764200151 0.31798198819 0.7305060029 0.19254399836 0.5
          -0.94314199686 -0.25431698561 0.040656600147 -1.0007799864 -0.5 -0.1113319993
          -1.1115700006 -0.5 0.061790000647 -0.91965401173 -0.5 0.069327197969
          0.20313000679 0.30061998963 0.0047877700999 0.067414298654 0.5 0.05388860032
          0.075165897608 0.5 -0.16578200459 0.27108699083 0.5 -0.08351060003
          0.14069800079 0.16885900497 -0.17604699731 0.12687399983 0.024941600859 0.019101899117
          -0.021123599261 0.2901929915 -0.037268299609 0.20313000679 0.30061998963 0.0047877700999
          1.2553399801 0.02869570069 -0.044535700232 1.2041200399 0.21308499575 -0.18568199873
          1.0667099953 0.30986699462 -0.00099666800816 1.0260499716 0.011771400459 0.016185000539
          -3.8989500999 0.24744200706 -0.23554000258 -3.7156999111 0.29170098901 -0.33228498697
          -3.6415400505 0.18903900683 -0.16241000593 -3.822799921 0.5 -0.16184200346
          -3.889359951 -0.35665598512 -0.5 -3.8310699463 -0.5 -0.38916000724
          -4.1110301018 -0.5 -0.40642899275 -4.0849199295 -0.30423098803 -0.31639400125
          0.57815998793 -0.31825500727 -0.050177000463 0.27188199759 -0.21608300507 -0.19496400654
          0.52369099855 -0.25701698661 -0.29001700878 0.48660299182 -0.097960598767 -0.14581799507
          -2.7622299194 0.5 0.0010923099471 -2.8269600868 0.33847901225 0.099728599191
          -2.7599999905 0.5 0.28317898512 -2.6367399693 0.26534798741 0.078260503709
          -0.93892097473 -0.041356798261 0.5 -0.96254199743 0.19088900089 0.5
          -0.70620900393 0.037291798741 0.28922000527 -0.7510010004 0.25560700893 0.5
          -0.93892097473 -0.041356798261 0.5 -0.7510010004 0.25560700893 0.5
          -0.70620900393 0.037291798741 0.28922000527 -0.70902901888 -0.081924401224 0.5
          0.42797398567 -0.5 -0.20191599429 0.60203802586 -0.41157200933 -0.5
          0.62789398432 -0.5 -0.19392700493 0.52369099855 -0.25701698661 -0.29001700878
          -1.670410037 -0.23073199391 -0.21768200397 -1.8430000544 -0.33087998629 -0.29164901376
          -1.7730799913 -0.5 -0.18303699791 -1.6529099941 -0.5 -0.32333600521
          -3.4066801071 0.46902000904 -0.5 -3.2857298851 0.5 -0.18894700706
          -3.4697299004 0.28407201171 -0.298379004 -3.5694301128 0.5 -0.27657601237
          0.17147399485 -0.046462800354 -0.28626099229 0.12687399983 0.024941600859 0.019101899117
          0.3682860136 0.00067014299566 0.0082637900487 0.2199189961 -0.15206000209 -0.010414100252
          4.2311301231 -0.28602001071 0.30712598562 4.34815979 -0.5 0.30085599422
          4.1665101051 -0.5 0.35283499956 4.3113298416 -0.5 0.48262700438
          -3.1328499317 0.5 -0.05846099928 -3.3652899265 0.29221200943 0.018539199606
          -3.2138299942 0.5 0.12549799681 -3.0080699921 0.29238799214 0.028416100889
          1.4919899702 -0.5 0.0043379599229 1.391010046 -0.5 -0.2258079946
          1.5954600573 -0.5 -0.26120200753 1.5000799894 -0.33221799135 -0.20392900705
          1.4919899702 -0.5 0.0043379599229 1.5000799894 -0.33221799135 -0.20392900705
          1.5954600573 -0.5 -0.26120200753 1.664839983 -0.5 0.021711599082
          -0.46542999148 0.5 0.387439996 -0.38609901071 0.25310799479 0.3300819993
          -0.31256601214 0.5 0.24124599993 -0.50226300955 0.5 0.14767700434
          4.0157899857 0.23598599434 -0.23627699912 3.9085800648 0.5 -0.15719300508
          4.0096001625 0.5 -0.34201300144 4.1033101082 0.5 -0.16609400511
          -2.9220399857 -0.26491099596 0.30408999324 -3.1171200275 -0.32041800022 0.23436300457
          -2.962280035 -0.5 0.2204490006 -2.9412100315 -0.31262499094 -0.011466300115
          3.4951400757 -0.11613500118 -0.5 3.4120700359 0.12526200712 -0.5
          3.4302000999 -0.042014900595 -0.25968700647 3.2644200325 -0.026787700132 -0.5
          3.4346001148 0.010584499687 0.0013051299611 3.6093900204 0.31306898594 -0.027008600533
          3.6606800556 0.057222399861 0.047008000314 3.5617899895 0.20520099998 0.20095099509
          -3.5468900204 -0.30179598927 0.5 -3.2471899986 -0.22948899865 0.5
          -3.5133900642 -0.13522699475 0.5 -3.4786798954 -0.29719600081 0.28423199058
          3.4346001148 0.010584499687 0.0013051299611 3.5617899895 0.20520099998 0.20095099509
          3.6606800556 0.057222399861 0.047008000314 3.3886699677 0.01943529956 0.25713300705
          -4.4165802002 0.22745400667 0.23878499866 -4.5957798958 0.24809199572 0.32881501317
          -4.6812400818 0.14698000252 0.1767770052 -4.5506501198 0.30194398761 0.066922001541
          -2.0428700447 0.13684900105 -0.5 -2.1682898998 -0.037599701434 -0.23476999998
          -2.0033299923 0.17082899809 -0.16009199619 -1.9522600174 -0.011583000422 -0.29229301214
          -4.3489499092 -0.10022199899 -0.5 -4.4539299011 -0.1930360049 -0.27674099803
          -4.2221798897 -0.17677399516 -0.20671699941 -4.2490501404 -0.32240501046 -0.5
          2.7243199348 -0.5 0.48583400249 2.6250600815 -0.5 0.26846000552
          2.8543798923 -0.5 0.31709998846 2.797960043 -0.29616799951 0.32714900374
          -2.1895999908 0.28031998873 -0.27681100368 -2.1682898998 -0.037599701434 -0.23476999998
          -2.0033299923 0.17082899809 -0.16009199619 -2.0428700447 0.13684900105 -0.5
          -4.3489499092 -0.10022199899 -0.5 -4.4353399277 -0.2726149857 -0.5
          -4.4539299011 -0.1930360049 -0.27674099803 -4.2490501404 -0.32240501046 -0.5
          -3.0034298897 -0.12146800011 0.11256500334 -2.8607199192 0.16806200147 0.1988620013
          -3.119879961 0.056279499084 0.0078261103481 -2.8699100018 0.034952599555 0.013808799908
          -1.29381001 0.12503300607 0.31571400166 -1.45697999 0.29096999764 0.5
          -1.241230011 0.18273699284 0.5 -1.432109952 0.071380198002 0.5
          2.8023600578 -0.042083900422 0.5 2.797960043 -0.29616799951 0.32714900374
          2.7103700638 -0.17533199489 0.17696000636 2.6219000816 -0.015453300439 0.30282199383
          -1.4628200531 0.5 -0.09861010313 -1.6768000126 0.5 -0.27391400933
          -1.7420699596 0.2584669888 -0.11043199897 -1.6463500261 0.28474900126 -0.30618798733
          4.8432202339 0.33124399185 0.15127900243 4.8042798042 0.5 0.31367200613
          4.9942002296 0.5 0.13716499507 5 0.27808099985 0.26434999704
          0.16596199572 0.5 0.45811799169 0.083770796657 0.16607399285 0.5
          0.33892700076 0.20277099311 0.5 0.057354498655 0.2768329978 0.30196899176
          3.3018300533 -0.5 0.031524900347 3.18708992 -0.32281601429 -0.009787529707
          3.4722599983 -0.22174499929 0.20733100176 3.2869899273 -0.28170898557 0.32561299205
          0.78051799536 0.5 0.18855799735 0.96667098999 0.22423000634 0.21116599441
          0.85752302408 0.5 0.012258999981 0.71180897951 0.31379199028 -0.019653400406
          3.2869899273 -0.28170898557 0.32561299205 3.1172299385 -0.5 0.090180002153
          3.3018300533 -0.5 0.031524900347 3.18708992 -0.32281601429 -0.009787529707
          -4.439789772 -0.27735000849 -0.054897699505 -4.7982001305 -0.27365100384 -0.020341299474
          -4.5130600929 -0.32579600811 0.18804700673 -4.5578799248 -0.5 0.075488097966
          0.71180897951 0.31379199028 -0.019653400406 0.78051799536 0.5 0.18855799735
          0.56476098299 0.5 -0.044713400304 0.85752302408 0.5 0.012258999981
          -4.5752401352 0.31679400802 -0.5 -4.5744199753 0.044033199549 -0.5
          -4.6261501312 0.17262099683 -0.1935839951 -4.500120163 0.30916801095 -0.29975399375
          3.6057898998 0.18472599983 -0.5 3.4734098911 0.21108800173 -0.2205349952
          3.4120700359 0.12526200712 -0.5 3.5376200676 0.42240199447 -0.5
          -1.9522600174 -0.011583000422 -0.29229301214 -1.890920043 -0.16450600326 -0.5
          -1.9544999599 -0.19884000719 -0.16746899486 -1.8430000544 -0.33087998629 -0.29164901376
          -1.9522600174 -0.011583000422 -0.29229301214 -1.8430000544 -0.33087998629 -0.29164901376
          -1.9544999599 -0.19884000719 -0.16746899486 -1.670410037 -0.23073199391 -0.21768200397
          1.0695999861 0.5 0.21742899716 0.8470069766 0.5 0.36908501387
          0.96667098999 0.22423000634 0.21116599441 0.78051799536 0.5 0.18855799735
          -3.40102005 0.049610700458 0.26974400878 -3.353219986 0.018101999536 -0.0069937198423
          -3.6202099323 -0.16945900023 0.16224400699 -3.2899799347 -0.19551900029 0.21153800189
          -4.8486700058 0.5 0.11407999694 -4.514550209 0.5 -0.045017201453
          -4.765540123 0.29459398985 -0.015708299354 -4.6425299644 0.5 0.1688580066
          -2.141769886 0.5 -0.17799699306 -2.182790041 0.25494199991 0.029647100717
          -2.2987000942 0.5 -0.012699699961 -2.0516901016 0.5 -0.021020600572
          -0.33964401484 -0.12936100364 0.5 -0.16119599342 0.084271103144 0.32078498602
          -0.35255399346 0.016716400161 0.25871700048 -0.17885400355 -0.17817400396 0.19088800251
          -3.8540000916 -0.5 0.28207299113 -4.0945601463 -0.28051298857 0.31798601151
          -3.8883500099 -0.22696000338 0.22436200082 -3.9475998878 -0.42686000466 0.5
          -1.3363499641 0.5 0.056991901249 -1.5486299992 0.27752000093 0.017110800371
          -1.3262499571 0.2814899981 -0.050565201789 -1.4628200531 0.5 -0.09861010313
          -0.10500200093 -0.014513599686 0.5 0.083770796657 0.16607399285 0.5
          0.028599999845 -0.025005400181 0.30730199814 0.15341800451 0.023780800402 0.5
          4.2944598198 0.20695400238 -0.17472800612 4.213329792 0.5 0.0031955000013
          4.373770237 0.29578301311 -0.0035506200511 4.0785198212 0.2688550055 0.022481000051
          2.2389800549 -0.33469301462 -0.31423199177 2.2014501095 -0.17346900702 -0.18166600168
          2.4390499592 -0.057027101517 -0.2462310046 2.4597499371 -0.30076900125 -0.3059630096
          -2.0084600449 0.5 0.30924999714 -2.131000042 0.5 0.14166200161
          -1.8121700287 0.32682698965 0.085832998157 -1.8209400177 0.5 0.2201499939
          0.73280501366 0.2939440012 -0.30173701048 0.71180897951 0.31379199028 -0.019653400406
          0.58461797237 0.18660899997 -0.17640599608 0.70714598894 0.5 -0.22382299602
          0.16357299685 0.41697001457 -0.5 0.2306600064 0.5 -0.31376600266
          0.42863300443 0.48355901241 -0.5 0.22253899276 0.29792100191 -0.30861100554
          1.1263699532 -0.31314399838 0.27022001147 0.89871001244 -0.21273000538 0.19672900438
          1.0750000477 -0.14948399365 0.12495800108 1.0831899643 -0.026730500162 0.28337299824
          -1.3521399498 -0.29692700505 -0.29181501269 -1.3341200352 0.058667398989 -0.30476099253
          -1.2810100317 -0.16105599701 -0.5 -1.1722400188 -0.078797601163 -0.24050499499
          0.98047602177 -0.18917199969 0.5 0.75085902214 -0.045475300401 0.28253901005
          0.89871001244 -0.21273000538 0.19672900438 1.0831899643 -0.026730500162 0.28337299824
          1.0750000477 -0.14948399365 0.12495800108 1.2553399801 0.02869570069 -0.044535700232
          1.1665500402 -0.30232200027 0.032807700336 1.298789978 -0.15092399716 0.16408100724
          -2.8274400234 0.051215600222 -0.3225030005 -3.0582199097 0.31288200617 -0.29153999686
          -2.9752700329 0.12661999464 -0.5 -2.8308899403 0.31933999062 -0.31058201194
          -3.406719923 -0.26567399502 -0.27803298831 -3.2809400558 -0.26598799229 -0.5
          -3.3308799267 -0.5 -0.28216999769 -3.1629300117 -0.5 -0.34590101242
          -2.5264899731 0.5 -0.0051567801274 -2.4949100018 0.29038199782 -0.30940899253
          -2.4157299995 0.5 -0.27320700884 -2.6490800381 0.5 -0.17990100384
          -1.0172100067 0.25485399365 -0.020222399384 -1.1438100338 0.013993400149 0.21154500544
          -0.86464500427 0.18405400217 0.1796399951 -1.0750999451 -0.011404699646 0.007108009886
          -2.6965899467 -0.25478899479 0.070601798594 -2.7003099918 -0.5 -0.15431599319
          -2.4605801105 -0.31329700351 0.0017525800504 -2.6087799072 -0.18399499357 -0.098889403045
          -0.70620900393 0.037291798741 0.28922000527 -0.96254199743 0.19088900089 0.5
          -0.86464500427 0.18405400217 0.1796399951 -0.92035800219 0.31782001257 0.33497199416
          -2.1942100525 -0.27436101437 -0.10729199648 -2.32543993 -0.5 -0.016557699069
          -2.4605801105 -0.31329700351 0.0017525800504 -2.2719900608 -0.32766199112 0.080448098481
          -2.6364200115 -0.0513737984 -0.25086298585 -2.6132099628 -0.29757499695 -0.26779401302
          -2.6087799072 -0.18399499357 -0.098889403045 -2.4208400249 -0.17098300159 -0.17608100176
          3.6745901108 -0.5 -0.024972600862 3.7846400738 -0.3112359941 -0.2879639864
          3.5628299713 -0.5 -0.19047999382 3.790719986 -0.5 -0.15779900551
          2.9765999317 0.15742999315 -0.14321500063 2.8999099731 0.041673701257 -0.29681798816
          2.9201900959 0.0039753098972 -0.016150400043 3.120470047 -0.021967599168 -0.27757799625
          4.5328397751 -0.5 0.28382301331 4.6142997742 -0.33187198639 0.5
          4.8106999397 -0.29430899024 0.31109198928 4.742000103 -0.5 0.47397199273
          -2.2944800854 0.10816299915 0.5 -2.3996500969 0.17564900219 0.17784799635
          -2.2191998959 0.31082698703 0.26025301218 -2.4461400509 0.30663898587 0.5
          2.4481799603 0.24948500097 0.0013240700355 2.2021598816 0.01178739965 -0.018270699307
          2.4395799637 -0.026134699583 0.038382198662 2.2796599865 0.15909999609 -0.20078100264
          2.797960043 -0.29616799951 0.32714900374 2.6795399189 -0.26569700241 0.5
          2.7103700638 -0.17533199489 0.17696000636 2.6219000816 -0.015453300439 0.30282199383
          -1.6768000126 0.5 -0.27391400933 -1.8110899925 0.48072299361 -0.5
          -1.8656400442 0.28522598743 -0.2969610095 -1.6463500261 0.28474900126 -0.30618798733
          -1.4628200531 0.5 -0.09861010313 -1.6463500261 0.28474900126 -0.30618798733
          -1.5486299992 0.27752000093 0.017110800371 -1.4892100096 0.17613700032 -0.19808200002
          3.4302000999 -0.042014900595 -0.25968700647 3.4506099224 -0.25270500779 -0.04623780027
          3.4346001148 0.010584499687 0.0013051299611 3.6450901031 -0.17131699622 -0.19211299717
          3.1800200939 0.15828900039 0.1766680032 3.3688399792 0.28460401297 0.022468499839
          3.095690012 0.30450299382 0.0079884901643 3.1808700562 0.17408800125 -0.17278499901
          -3.8818199635 0.0094203203917 -0.0044903801754 -3.8883500099 -0.22696000338 0.22436200082
          -3.6202099323 -0.16945900023 0.16224400699 -3.7506599426 -0.28654700518 -0.026961300522
          -0.17885400355 -0.17817400396 0.19088800251 -0.169242993 0.019168399274 -0.0072063799016
          -0.35255399346 0.016716400161 0.25871700048 -0.40286201239 -0.0046954802237 -0.0054140798748
          0.82210099697 -0.27426099777 -0.29057401419 0.93065899611 -0.030296299607 -0.23989999294
          0.71499300003 0.033225100487 -0.28708100319 0.89200401306 -0.15874500573 -0.5
          -3.9890100956 0.24387900531 0.0062287501059 -4.1248002052 0.32227998972 0.33130601048
          -3.8861699104 0.22745600343 0.24729199708 -4.1479997635 0.1524810046 0.18773500621
          2.2502601147 0.5 -0.1980600059 2.4481799603 0.24948500097 0.0013240700355
          2.4748399258 0.5 -0.20795799792 2.4688100815 0.27537798882 -0.28756999969
          4.5015702248 0.045086801052 0.27461698651 4.794479847 -0.0099189598113 0.26575800776
          4.7783799171 -0.058915100992 0.015639599413 4.6710700989 -0.19623799622 0.19057400525
          4.5424098969 -0.083453699946 0.5 4.625770092 0.13625299931 0.5
          4.794479847 -0.0099189598113 0.26575800776 4.7967801094 -0.036810200661 0.5
          -1.728489995 -0.2819840014 0.029070099816 -1.670410037 -0.23073199391 -0.21768200397
          -1.5899200439 -0.5 -0.14776800573 -1.3964400291 -0.3062709868 0.030771600083
          -1.3521399498 -0.29692700505 -0.29181501269 -1.5899200439 -0.5 -0.14776800573
          -1.3853499889 -0.5 -0.1261779964 -1.4707000256 -0.5 -0.29291000962
          -1.670410037 -0.23073199391 -0.21768200397 -1.7730799913 -0.5 -0.18303699791
          -1.5899200439 -0.5 -0.14776800573 -1.6529099941 -0.5 -0.32333600521
          0.84539800882 -0.5 0.45313599706 0.65357899666 -0.5 0.40985101461
          0.7291790247 -0.29900100827 0.29153800011 0.74645501375 -0.33665299416 0.5
          0.74645501375 -0.33665299416 0.5 0.7291790247 -0.29900100827 0.29153800011
          0.98047602177 -0.18917199969 0.5 0.68295001984 -0.13473699987 0.5
          1.4891799688 -0.27188199759 0.26980000734 1.2525800467 -0.23895399272 0.5
          1.298789978 -0.15092399716 0.16408100724 1.2891700268 0.025188799948 0.31899100542
          2.3855099678 0.34596499801 -0.5 2.4966099262 0.5 -0.43169501424
          2.6561300755 0.37442401052 -0.5 2.4688100815 0.27537798882 -0.28756999969
          -1.1465300322 -0.23797599971 0.5 -1.2460000515 -0.40172600746 0.5
          -0.99834597111 -0.5 0.33863401413 -1.1246000528 -0.21291700006 0.24169400334
          -2.3618400097 -0.32881900668 0.3184300065 -2.4707000256 -0.30024200678 0.5
          -2.5125598907 -0.5 0.46646800637 -2.6140599251 -0.2892279923 0.31681698561
          2.4481799603 0.24948500097 0.0013240700355 2.1986699104 0.16770100594 0.18445199728
          2.2021598816 0.01178739965 -0.018270699307 2.2155299187 0.29384601116 -0.016047000885
          -2.6364200115 -0.0513737984 -0.25086298585 -2.6132099628 -0.29757499695 -0.26779401302
          -2.5989000797 -0.16783699393 -0.5 -2.6997199059 -0.29153099656 -0.5
          -1.3444800377 -0.30236798525 0.28137201071 -1.1855100393 -0.25224798918 -0.0140108997
          -1.2431999445 -0.5 0.20165300369 -1.1246000528 -0.21291700006 0.24169400334
          2.5668699741 -0.11371900141 0.5 2.3842000961 -0.1629229933 0.5
          2.6219000816 -0.015453300439 0.30282199383 2.4428100586 0.10961800069 0.26388600469
          4.7025499344 0.19734199345 0.20103999972 4.6531600952 0.31911000609 0.5
          4.4985699654 0.29182401299 0.2750479877 4.8042798042 0.5 0.31367200613
          0.35873600841 0.27615499496 -0.16060699522 0.42726400495 0.5 -0.227602005
          0.56476098299 0.5 -0.044713400304 0.27108699083 0.5 -0.08351060003
          0.68295001984 -0.13473699987 0.5 0.7291790247 -0.29900100827 0.29153800011
          0.98047602177 -0.18917199969 0.5 0.75085902214 -0.045475300401 0.28253901005
          0.58461797237 0.18660899997 -0.17640599608 0.35873600841 0.27615499496 -0.16060699522
          0.56476098299 0.5 -0.044713400304 0.46921399236 0.2665579915 0.056172598153
          4.6631398201 0.058381199837 -0.5 4.8905501366 0.13403299451 -0.5
          4.737279892 -0.20036800206 -0.5 4.7696099281 -0.016697799787 -0.29300200939
          -4.1164798737 0.5 -0.23297099769 -4.2024998665 0.29241999984 0.027058599517
          -3.9890100956 0.24387900531 0.0062287501059 -4.0830402374 0.30948498845 -0.29728299379
          -1.1753100157 0.18597100675 -0.21642799675 -1.1828099489 0.5 -0.19919799268
          -0.92764699459 0.27740699053 -0.26456698775 -1.0172100067 0.25485399365 -0.020222399384
          -4.513229847 -0.036582600325 0.5 -4.7226400375 0.0055706598796 0.5
          -4.605700016 -0.14155100286 0.34099599719 -4.5181999207 0.028785899282 0.28230598569
          -4.513229847 -0.036582600325 0.5 -4.605700016 -0.14155100286 0.34099599719
          -4.3976202011 -0.16255900264 0.25912800431 -4.5181999207 0.028785899282 0.28230598569
          -4.0616898537 0.31015700102 -0.5 -4.0041999817 0.10439799726 -0.5
          -4.0830402374 0.30948498845 -0.29728299379 -3.8989500999 0.24744200706 -0.23554000258
          4.1314902306 0.23748099804 -0.5 4.1566100121 -0.01251959987 -0.28246301413
          4.1330800056 -0.018558099866 -0.5 3.9944400787 0.12515999377 -0.5
          -3.5598199368 -0.5 0.038439199328 -3.4302499294 -0.5 0.19616499543
          -3.4054200649 -0.24873800576 -0.029902800918 -3.3001599312 -0.5 -0.014418800361
          2.9353599548 0.054025001824 0.25657498837 2.6777200699 -0.0055014099926 -0.0048864497803
          2.9201900959 0.0039753098972 -0.016150400043 2.6889400482 0.16072399914 0.18579299748
          2.8604700565 0.28147599101 -0.024887500331 2.6889400482 0.16072399914 0.18579299748
          2.9201900959 0.0039753098972 -0.016150400043 2.6777200699 -0.0055014099926 -0.0048864497803
          2.4481799603 0.24948500097 0.0013240700355 2.6477799416 0.16645799577 -0.17383100092
          2.4395799637 -0.026134699583 0.038382198662 2.6777200699 -0.0055014099926 -0.0048864497803
          0.46921399236 0.2665579915 0.056172598153 0.20313000679 0.30061998963 0.0047877700999
          0.27108699083 0.5 -0.08351060003 0.27400401235 0.5 0.12896299362
          1.2525800467 -0.23895399272 0.5 0.95045101643 -0.36442101002 0.5
          1.1263699532 -0.31314399838 0.27022001147 0.98047602177 -0.18917199969 0.5
          2.9589400291 -0.2156240046 -0.5 2.8999099731 0.041673701257 -0.29681798816
          2.9524600506 -0.22408300638 -0.21185599267 2.7578799725 -0.10127799958 -0.5
          1.4357299805 -0.35067200661 0.5 1.5849699974 -0.077601596713 0.5
          1.4891799688 -0.27188199759 0.26980000734 1.6337100267 -0.2680259943 0.5
          1.4357299805 -0.35067200661 0.5 1.3978899717 -0.017269099131 0.5
          1.4891799688 -0.27188199759 0.26980000734 1.5849699974 -0.077601596713 0.5
          1.9567300081 0.0023706499487 0.0081458101049 2.0588099957 0.16667899489 -0.072469100356
          1.7617299557 0.19749200344 -0.18400299549 1.8725500107 0.093445502222 -0.32259699702
          2.8999099731 0.041673701257 -0.29681798816 2.7815999985 0.20081700385 -0.5
          3.0909199715 0.094946503639 -0.5 3.0176899433 0.33451101184 -0.5
          -2.8985300064 0.5 0.19352899492 -3.0836999416 0.5 0.28708401322
          -2.8708798885 0.5 0.40537801385 -3.012720108 0.29143700004 0.30083501339
          -0.93830001354 0.5 0.10322599858 -0.79987299442 0.5 0.33046600223
          -0.77020597458 0.5 0.12030699849 -0.92035800219 0.31782001257 0.33497199416
          -1.3727099895 0.30601900816 0.28291600943 -1.3802700043 0.5 0.48661699891
          -1.45697999 0.29096999764 0.5 -1.5013799667 0.5 0.29929700494
          4.317220211 0.013630899601 -0.032561101019 4.5178999901 -0.10659900308 -0.17478400469
          4.3278198242 -0.19421100616 -0.1541839987 4.5181698799 -0.25569599867 -0.00080205698032
          -2.7145900726 -0.082542397082 0.279302001 -2.9183399677 -0.016215600073 0.29276099801
          -2.8798100948 0.024562800303 0.5 -2.7625899315 -0.27350199223 0.5
          4.317220211 0.013630899601 -0.032561101019 4.5567698479 0.040265500546 -0.029345599934
          4.5178999901 -0.10659900308 -0.17478400469 4.5181698799 -0.25569599867 -0.00080205698032
          0.93065899611 -0.030296299607 -0.23989999294 0.70115399361 -0.13068500161 -0.12672199309
          0.71499300003 0.033225100487 -0.28708100319 0.80673497915 0.05526150018 -0.040332399309
          -3.725509882 -0.28060400486 0.5 -3.776599884 -0.0024208100513 0.27819898725
          -3.6482999325 -0.031938001513 0.5 -3.8706200123 -0.17432299256 0.5
          -0.77074998617 -0.30250000954 -0.3132340014 -0.56736600399 -0.5 -0.39558899403
          -0.86342602968 -0.5 -0.2539960146 -0.59884798527 -0.5 -0.081100203097
          4.3127498627 0.19265699387 0.16710400581 4.4985699654 0.29182401299 0.2750479877
          4.2926101685 0.022265100852 0.30176800489 4.390999794 0.12619799376 0.5
          -4.697619915 0.5 -0.22214700282 -4.514550209 0.5 -0.045017201453
          -4.765540123 0.29459398985 -0.015708299354 -4.8486700058 0.5 0.11407999694
          -2.8985300064 0.5 0.19352899492 -2.8708798885 0.5 0.40537801385
          -2.7599999905 0.5 0.28317898512 -3.012720108 0.29143700004 0.30083501339
          4.8028302193 -0.29806599021 -0.33157899976 4.7696099281 -0.016697799787 -0.29300200939
          5 -0.058660898358 -0.40873599052 5 -0.29155600071 -0.27424201369
          3.6315801144 -0.5 -0.39594000578 3.7514400482 -0.26456600428 -0.5
          3.8477098942 -0.5 -0.38085699081 3.7846400738 -0.3112359941 -0.2879639864
          -2.0516901016 0.5 -0.021020600572 -2.182790041 0.25494199991 0.029647100717
          -2.2987000942 0.5 -0.012699699961 -2.131000042 0.5 0.14166200161
          3.1800200939 0.15828900039 0.1766680032 3.3688399792 0.28460401297 0.022468499839
          3.4346001148 0.010584499687 0.0013051299611 3.3886699677 0.01943529956 0.25713300705
          3.3886699677 0.01943529956 0.25713300705 3.3688399792 0.28460401297 0.022468499839
          3.4346001148 0.010584499687 0.0013051299611 3.5617899895 0.20520099998 0.20095099509
          -0.80443400145 -0.5 0.34285399318 -0.87598198652 -0.27951401472 0.27214699984
          -0.66166800261 -0.5 0.21156099439 -0.65928399563 -0.29948800802 0.30083200336
          -0.30416700244 0.12715099752 0.5 -0.10500200093 -0.014513599686 0.5
          -0.11969800293 0.24129599333 0.5 -0.16119599342 0.084271103144 0.32078498602
          1.2096600533 0.029559800401 -0.5 1.5757000446 -0.01348510012 -0.5
          1.2840600014 -0.15874500573 -0.5 1.3415499926 0.046351000667 -0.2966940105
          2.94404006 -0.24824899435 0.048307999969 2.9252800941 -0.5 0.11620400101
          3.0828099251 -0.5 0.29510200024 3.1172299385 -0.5 0.090180002153
          3.1624600887 -0.015569499694 -0.02179059945 2.9765999317 0.15742999315 -0.14321500063
          3.095690012 0.30450299382 0.0079884901643 2.966039896 0.21264900267 0.13400100172
          -0.60728102922 0.5 -0.3106789887 -0.61564701796 0.5 -0.067553699017
          -0.68140697479 0.28639298677 -0.28938999772 -0.80325001478 0.5 -0.29217898846
          3.095690012 0.30450299382 0.0079884901643 2.9765999317 0.15742999315 -0.14321500063
          3.1808700562 0.17408800125 -0.17278499901 3.0563700199 0.30440598726 -0.29042899609
          -1.0172100067 0.25485399365 -0.020222399384 -0.86464500427 0.18405400217 0.1796399951
          -0.74285399914 0.13776800036 -0.12904399633 -0.81901800632 -0.064964897931 -0.069114297628
          0.89332699776 0.23076300323 -0.16234900057 1.0260499716 0.011771400459 0.016185000539
          1.2041200399 0.21308499575 -0.18568199873 1.035220027 0.14891000092 -0.29856100678
          -0.43139898777 0.5 -0.15948499739 -0.61564701796 0.5 -0.067553699017
          -0.68140697479 0.28639298677 -0.28938999772 -0.60728102922 0.5 -0.3106789887
          2.2021598816 0.01178739965 -0.018270699307 1.9453500509 -0.087545797229 -0.2573390007
          2.2014501095 -0.17346900702 -0.18166600168 2.1815600395 -0.001020470052 -0.32536798716
          -1.3363499641 0.5 0.056991901249 -1.3727099895 0.30601900816 0.28291600943
          -1.5486299992 0.27752000093 0.017110800371 -1.5013799667 0.5 0.29929700494
          -1.5486299992 0.27752000093 0.017110800371 -1.7420699596 0.2584669888 -0.11043199897
          -1.730610013 -0.00066968100145 -0.0049977498129 -1.4892100096 0.17613700032 -0.19808200002
          -1.4028999805 0.13422000408 0.12791000307 -1.3262499571 0.2814899981 -0.050565201789
          -1.5486299992 0.27752000093 0.017110800371 -1.4892100096 0.17613700032 -0.19808200002
          -1.5486299992 0.27752000093 0.017110800371 -1.6647800207 0.24374599755 0.22540199757
          -1.730610013 -0.00066968100145 -0.0049977498129 -1.7420699596 0.2584669888 -0.11043199897
          2.2389800549 -0.33469301462 -0.31423199177 2.3567500114 -0.5 -0.25275498629
          2.4597499371 -0.30076900125 -0.3059630096 2.3412098885 -0.33859500289 -0.5
          -5 -0.49631300569 0.38468599319 -4.7161898613 -0.5 0.43861299753
          -4.8936700821 -0.25269600749 0.5 -4.794549942 -0.32775598764 0.30355900526
          -2.7017800808 -0.045854199678 -0.5 -2.8483600616 -0.1823129952 -0.18523199856
          -2.9389500618 -0.039363101125 -0.5 -2.8274400234 0.051215600222 -0.3225030005
          -3.1326100826 -0.026751099154 0.30142500997 -3.2471899986 -0.22948899865 0.5
          -3.0562400818 -0.17835299671 0.5 -3.1171200275 -0.32041800022 0.23436300457
          2.4688100815 0.27537798882 -0.28756999969 2.2502601147 0.5 -0.1980600059
          2.2679901123 0.5 -0.42606198788 2.4748399258 0.5 -0.20795799792
          -1.5013799667 0.5 0.29929700494 -1.5486299992 0.27752000093 0.017110800371
          -1.6142400503 0.5 0.032841600478 -1.6647800207 0.24374599755 0.22540199757
          0.81075197458 0.14764200151 0.31798198819 0.813831985 0.031614098698 0.5
          0.75085902214 -0.045475300401 0.28253901005 0.5860620141 0.083102703094 0.5
          2.1368100643 -0.22857700288 0.5 2.0565500259 -0.31903299689 0.2972239852
          2.2452199459 -0.36571800709 0.5 2.2669200897 -0.32125800848 0.30331799388
          1.7132099867 0.18727500737 0.17964400351 1.688740015 0.32006499171 0.5
          1.818590045 0.3155849874 0.32314199209 1.6280800104 0.11417599767 0.5
          -5 -0.26007699966 0.21836000681 -4.8936700821 -0.25269600749 0.5
          -5 -0.12896800041 0.37591099739 -4.794549942 -0.32775598764 0.30355900526
          -1.4628200531 0.5 -0.09861010313 -1.6768000126 0.5 -0.27391400933
          -1.6142400503 0.5 0.032841600478 -1.7420699596 0.2584669888 -0.11043199897
          -1.6142400503 0.5 0.032841600478 -1.6768000126 0.5 -0.27391400933
          -1.8758599758 0.5 -0.063933096826 -1.7420699596 0.2584669888 -0.11043199897
          -1.8528900146 0.074574902654 -0.5 -2.0386500359 -0.018439799547 -0.5
          -1.9522600174 -0.011583000422 -0.29229301214 -1.890920043 -0.16450600326 -0.5
          -1.7309900522 0.022700900212 -0.2696749866 -1.9655499458 0.017111200839 0.015656199306
          -1.730610013 -0.00066968100145 -0.0049977498129 -1.9522600174 -0.011583000422 -0.29229301214
          3.120470047 -0.021967599168 -0.27757799625 3.0909199715 0.094946503639 -0.5
          3.2905800343 0.095524303615 -0.3324739933 3.1808700562 0.17408800125 -0.17278499901
          -4.5986700058 -0.5 0.27377399802 -4.794549942 -0.32775598764 0.30355900526
          -4.5459198952 -0.24766799808 0.5 -4.7161898613 -0.5 0.43861299753
          -4.6742100716 -0.19076700509 0.15933300555 -4.7982001305 -0.27365100384 -0.020341299474
          -5 -0.26007699966 0.21836000681 -4.794549942 -0.32775598764 0.30355900526
          0.98047602177 -0.18917199969 0.5 0.813831985 0.031614098698 0.5
          1.0831899643 -0.026730500162 0.28337299824 0.98735398054 0.096338197589 0.5
          3.3009901047 0.050491899252 0.5 3.1408400536 -0.26990801096 0.5
          3.1743099689 -0.022352099419 0.31030499935 3.0548899174 -0.0057386700064 0.5
          3.4012000561 -0.17302200198 0.5 3.1408400536 -0.26990801096 0.5
          3.1743099689 -0.022352099419 0.31030499935 3.3009901047 0.050491899252 0.5
          2.9692099094 -0.18215200305 0.27709600329 3.1743099689 -0.022352099419 0.31030499935
          3.0548899174 -0.0057386700064 0.5 2.9353599548 0.054025001824 0.25657498837
          -0.29486501217 0.23727999628 0.084538802505 -0.28813400865 0.5 -0.011587300338
          -0.31256601214 0.5 0.24124599993 -0.50226300955 0.5 0.14767700434
          4.317220211 0.013630899601 -0.032561101019 4.4943199158 0.06769169867 -0.29010298848
          4.5178999901 -0.10659900308 -0.17478400469 4.5567698479 0.040265500546 -0.029345599934
          -0.74638098478 -0.26905399561 0.5 -0.95835602283 -0.27399000525 0.5
          -0.70035898685 -0.45424199104 0.5 -0.80443400145 -0.5 0.34285399318
          -1.5764600039 0.36043098569 -0.5 -1.7690800428 0.27011099458 -0.5
          -1.6463500261 0.28474900126 -0.30618798733 -1.6108299494 0.078509502113 -0.5
          -3.8861699104 0.22745600343 0.24729199708 -3.8746600151 0.5 0.47712299228
          -3.7529900074 0.32859098911 0.5 -3.9800200462 0.29855400324 0.5
          -3.8861699104 0.22745600343 0.24729199708 -3.9800200462 0.29855400324 0.5
          -3.7529900074 0.32859098911 0.5 -3.7759699821 0.12645199895 0.5
          -0.6270070076 -0.18018999696 -0.18880400062 -0.63264602423 -0.32936599851 0.064718000591
          -0.53925698996 -0.14979499578 0.041408799589 -0.42740899324 -0.30482000113 -0.02907329984
          3.4302000999 -0.042014900595 -0.25968700647 3.2362499237 -0.1912920028 -0.17273800075
          3.4346001148 0.010584499687 0.0013051299611 3.4506099224 -0.25270500779 -0.04623780027
          -1.2810100317 -0.16105599701 -0.5 -1.3521399498 -0.29692700505 -0.29181501269
          -1.1722400188 -0.078797601163 -0.24050499499 -1.1352299452 -0.30921301246 -0.27610599995
          -3.8861699104 0.22745600343 0.24729199708 -3.697149992 0.5 0.36223399639
          -3.7529900074 0.32859098911 0.5 -3.8746600151 0.5 0.47712299228
          -3.8861699104 0.22745600343 0.24729199708 -3.9800200462 0.29855400324 0.5
          -3.7759699821 0.12645199895 0.5 -3.971339941 0.069716103375 0.5
          -4.8396000862 0.080449603498 -0.5 -4.7847399712 0.018612299114 -0.27819800377
          -4.8039498329 -0.1570609957 -0.5 -5 -0.13075700402 -0.36378800869
          -4.4496002197 0.5 -0.48874101043 -4.5752401352 0.31679400802 -0.5
          -4.500120163 0.30916801095 -0.29975399375 -4.3405499458 0.17424100637 -0.5
          1.9660799503 -0.216049999 0.5 1.9551000595 0.040498699993 0.28340399265
          2.0954899788 -0.062455501407 0.5 1.8240200281 -0.074077397585 0.5
          3.9605000019 0.5 0.34884899855 3.730809927 0.29602000117 0.3136009872
          3.9557700157 0.35738798976 0.5 3.8664000034 0.19483299553 0.16909499466
          -1.0750999451 -0.011404699646 0.007108009886 -1.1438100338 0.013993400149 0.21154500544
          -0.86464500427 0.18405400217 0.1796399951 -0.93832302094 -0.045258000493 0.24930199981
          -2.8985300064 0.5 0.19352899492 -3.0080699921 0.29238799214 0.028416100889
          -2.8269600868 0.33847901225 0.099728599191 -2.9498999119 0.5 -0.14169600606
          4.0968198776 0.5 0.16808399558 3.9115200043 0.5 0.15832599998
          3.9605000019 0.5 0.34884899855 4.1333699226 0.29578199983 0.28484800458
          -2.1403698921 -0.070216402411 0.5 -1.9649800062 -0.0049698902294 0.29592001438
          -2.1791601181 0.066247500479 0.26825898886 -2.1809399128 -0.24249899387 0.24300700426
          2.4395799637 -0.026134699583 0.038382198662 2.4428100586 0.10961800069 0.26388600469
          2.4481799603 0.24948500097 0.0013240700355 2.6889400482 0.16072399914 0.18579299748
          0.73280501366 0.2939440012 -0.30173701048 1.0351999998 0.5 -0.23184999824
          0.89332699776 0.23076300323 -0.16234900057 0.70714598894 0.5 -0.22382299602
          3.0548899174 -0.0057386700064 0.5 2.8473100662 0.22374899685 0.5
          2.8023600578 -0.042083900422 0.5 2.9353599548 0.054025001824 0.25657498837
          0.70003300905 0.45500999689 -0.5 0.89347398281 0.5 -0.40201699734
          0.73280501366 0.2939440012 -0.30173701048 0.70714598894 0.5 -0.22382299602
          -1.0172100067 0.25485399365 -0.020222399384 -0.86464500427 0.18405400217 0.1796399951
          -0.81901800632 -0.064964897931 -0.069114297628 -1.0750999451 -0.011404699646 0.007108009886
          -1.3964400291 -0.3062709868 0.030771600083 -1.5899200439 -0.5 -0.14776800573
          -1.5047199726 -0.5 0.018165400252 -1.3853499889 -0.5 -0.1261779964
          -3.9185600281 -0.21505500376 -0.20922599733 -3.7506599426 -0.28654700518 -0.026961300522
          -3.6039199829 -0.1486119926 -0.1880979985 -3.7279200554 -0.31415998936 -0.27874299884
          -0.92035800219 0.31782001257 0.33497199416 -0.92897802591 0.46998101473 0.5
          -0.7510010004 0.25560700893 0.5 -0.96254199743 0.19088900089 0.5
          -3.5095100403 -0.29471600056 -0.5 -3.7030899525 -0.27636900544 -0.5
          -3.5521500111 0.0046129701659 -0.5 -3.6039199829 -0.1486119926 -0.1880979985
          -1.5096600056 -0.035843800753 0.024828599766 -1.7309900522 0.022700900212 -0.2696749866
          -1.730610013 -0.00066968100145 -0.0049977498129 -1.5251499414 -0.076651901007 -0.31482899189
          3.9662399292 0.2043710053 0.5 3.730809927 0.29602000117 0.3136009872
          3.9557700157 0.35738798976 0.5 3.8128800392 0.20643000305 0.5
          -0.43139898777 0.5 -0.15948499739 -0.47131600976 0.32570299506 -0.023170199245
          -0.47644600272 0.21734400094 -0.22011299431 -0.61564701796 0.5 -0.067553699017
          0.74645501375 -0.33665299416 0.5 0.68295001984 -0.13473699987 0.5
          0.53568398952 -0.32191199064 0.5 0.7291790247 -0.29900100827 0.29153800011
          -2.6132099628 -0.29757499695 -0.26779401302 -2.8245999813 -0.5 -0.29598200321
          -2.7003099918 -0.5 -0.15431599319 -2.704449892 -0.5 -0.44117501378
          -5 0.32793700695 0.27663400769 -5 0.3144119978 0.46769100428
          -4.8773698807 0.1690479964 0.5 -5 0.07584580034 0.38386198878
          3.4916698933 -0.37139999866 -0.5 3.7514400482 -0.26456600428 -0.5
          3.7846400738 -0.3112359941 -0.2879639864 3.4532198906 -0.27570098639 -0.28086999059
          1.2525800467 -0.23895399272 0.5 0.98047602177 -0.18917199969 0.5
          1.0831899643 -0.026730500162 0.28337299824 1.1710499525 0.11986300349 0.5
          2.9282898903 0.5 -0.19310599566 3.0563700199 0.30440598726 -0.29042899609
          3.1241300106 0.5 -0.23149099946 3.0176899433 0.33451101184 -0.5
          -4.7836899757 -0.0049985698424 -0.0062314402312 -5 -0.004447159823 0.13623799384
          -4.6812400818 0.14698000252 0.1767770052 -4.8052501678 -0.030253799632 0.27854898572
          4.3127498627 0.19265699387 0.16710400581 4.4985699654 0.29182401299 0.2750479877
          4.5015702248 0.045086801052 0.27461698651 4.2926101685 0.022265100852 0.30176800489
          4.039850235 -0.20272299647 0.21478900313 4.3434801102 -0.13885499537 0.17381000519
          4.2311301231 -0.28602001071 0.30712598562 4.2926101685 0.022265100852 0.30176800489
          4.3434801102 -0.13885499537 0.17381000519 4.2926101685 0.022265100852 0.30176800489
          4.317220211 0.013630899601 -0.032561101019 4.3127498627 0.19265699387 0.16710400581
          0.12759399414 -0.5 -0.23184600472 -0.094856999815 -0.5 -0.28745400906
          0.02034159936 -0.29206499457 -0.27554398775 -0.14947299659 -0.5 -0.13736000657
          -0.094856999815 -0.5 -0.28745400906 -0.30116099119 -0.5 -0.18737800419
          -0.29398798943 -0.19200000167 -0.2282319963 -0.14947299659 -0.5 -0.13736000657
          1.8388400078 -0.37851500511 0.5 1.8512899876 -0.25720700622 0.29749301076
          1.6337100267 -0.2680259943 0.5 1.6531300545 -0.5 0.42902299762
          -4.500120163 0.30916801095 -0.29975399375 -4.5744199753 0.044033199549 -0.5
          -4.4012899399 0.03873860091 -0.27101901174 -4.3405499458 0.17424100637 -0.5
          3.5376200676 0.42240199447 -0.5 3.6711499691 0.31469801068 -0.29238000512
          3.8109300137 0.5 -0.32591500878 3.7777900696 0.29186201096 -0.5
          4.5181698799 -0.25569599867 -0.00080205698032 4.7783799171 -0.058915100992 0.015639599413
          4.6962199211 -0.21809899807 -0.17522199452 4.814139843 -0.29069000483 0.014058699831
          -0.57590299845 0.34252899885 -0.5 -0.60728102922 0.5 -0.3106789887
          -0.68140697479 0.28639298677 -0.28938999772 -0.72934299707 0.47740399837 -0.5
          3.18708992 -0.32281601429 -0.009787529707 3.1172299385 -0.5 0.090180002153
          3.0969901085 -0.5 -0.1024639979 2.94404006 -0.24824899435 0.048307999969
          3.6228199005 0.064896397293 -0.30187800527 3.9046399593 0.029231099412 -0.28819599748
          3.7685399055 -0.11422099918 -0.34736299515 3.7566299438 0.15342700481 -0.14512400329
          -1.5496799946 -0.11574400216 0.5 -1.7268799543 -0.26261898875 0.29539200664
          -1.637830019 -0.34564900398 0.5 -1.5302300453 -0.20296399295 0.1751369983
          4.4887499809 -0.30371600389 -0.5 4.737279892 -0.20036800206 -0.5
          4.6661100388 -0.5 -0.39997300506 4.8028302193 -0.29806599021 -0.33157899976
          2.6477799416 0.16645799577 -0.17383100092 2.9765999317 0.15742999315 -0.14321500063
          2.9201900959 0.0039753098972 -0.016150400043 2.8604700565 0.28147599101 -0.024887500331
          -1.8430000544 -0.33087998629 -0.29164901376 -1.9762599468 -0.5 -0.39294800162
          -1.6529099941 -0.5 -0.32333600521 -1.7048399448 -0.4852539897 -0.5
          -3.177740097 0.19153399765 0.19352599978 -2.8607199192 0.16806200147 0.1988620013
          -2.9183399677 -0.016215600073 0.29276099801 -3.012720108 0.29143700004 0.30083501339
          -1.5214099884 -0.5 0.34752699733 -1.5302300453 -0.20296399295 0.1751369983
          -1.637830019 -0.34564900398 0.5 -1.7268799543 -0.26261898875 0.29539200664
          -1.5496799946 -0.11574400216 0.5 -1.6999100447 -0.016917800531 0.25771600008
          -1.7268799543 -0.26261898875 0.29539200664 -1.5302300453 -0.20296399295 0.1751369983
          -3.40102005 0.049610700458 0.26974400878 -3.353219986 0.018101999536 -0.0069937198423
          -3.3652899265 0.29221200943 0.018539199606 -3.6195299625 0.18837699294 0.1758890003
          5 -0.025442499667 -0.21136300266 5 -0.14510799944 -0.050927400589
          4.7783799171 -0.058915100992 0.015639599413 5 0.040265500546 -0.029345599934
          -0.10501199961 -0.31161299348 0.5 -0.17885400355 -0.17817400396 0.19088800251
          -0.012120299973 -0.32062399387 0.28174200654 0.03605210036 -0.1630679965 0.5
          0.098988100886 -0.5 0.3943490088 -0.012120299973 -0.32062399387 0.28174200654
          -0.035155199468 -0.5 0.074470199645 0.23762199283 -0.5 0.14814600348
          0.098988100886 -0.5 0.3943490088 -0.012120299973 -0.32062399387 0.28174200654
          -0.16431899369 -0.5 0.31346601248 -0.035155199468 -0.5 0.074470199645
          2.2902700901 0.13368199766 -0.5 2.3120000362 -0.058240499347 -0.5
          2.4390499592 -0.057027101517 -0.2462310046 2.4803700447 0.1678159982 -0.5
          2.0364201069 0.5 -0.27101698518 2.1893599033 0.29838100076 -0.5
          1.9433000088 0.5 -0.4768820107 2.0216500759 0.22515000403 -0.27024498582
          -3.4697299004 0.28407201171 -0.298379004 -3.2857298851 0.5 -0.18894700706
          -3.5640099049 0.29994499683 -0.013255200349 -3.5453898907 0.5 0.00052557198796
          3.730809927 0.29602000117 0.3136009872 3.5264201164 0.5 0.31256499887
          3.5617899895 0.20520099998 0.20095099509 3.541369915 0.5 0.1197900027
          2.0216500759 0.22515000403 -0.27024498582 2.1893599033 0.29838100076 -0.5
          1.9433000088 0.5 -0.4768820107 1.8703600168 0.23445099592 -0.5
          2.0216500759 0.22515000403 -0.27024498582 2.1893599033 0.29838100076 -0.5
          1.8703600168 0.23445099592 -0.5 2.040199995 0.016450500116 -0.5
          4.4887499809 -0.30371600389 -0.5 4.737279892 -0.20036800206 -0.5
          4.8028302193 -0.29806599021 -0.33157899976 4.4999699593 -0.30107301474 -0.267922014
          2.3855099678 0.34596499801 -0.5 2.2902700901 0.13368199766 -0.5
          2.4688100815 0.27537798882 -0.28756999969 2.4803700447 0.1678159982 -0.5
          -0.93832302094 -0.045258000493 0.24930199981 -0.86464500427 0.18405400217 0.1796399951
          -0.74051898718 -0.13983599842 0.1276730001 -0.70620900393 0.037291798741 0.28922000527
          -4.0041999817 0.10439799726 -0.5 -3.7646200657 -0.015583699569 -0.5
          -4.0346798897 -0.02448659949 -0.29127898812 -3.8034300804 0.010254199617 -0.24826699495
          1.2388900518 -0.17473700643 -0.16655999422 1.0260499716 0.011771400459 0.016185000539
          0.96319800615 -0.25574100018 -0.086030602455 0.93065899611 -0.030296299607 -0.23989999294
          1.4891799688 -0.27188199759 0.26980000734 1.5849699974 -0.077601596713 0.5
          1.6828099489 -0.15067499876 0.17043499649 1.6337100267 -0.2680259943 0.5
          0.69564402103 0.31359699368 0.28978401423 0.45764601231 0.28433001041 0.29305499792
          0.6344910264 0.5 0.40687701106 0.57046198845 0.31609800458 0.5
          3.2869899273 -0.28170898557 0.32561299205 3.1743900776 -0.18350000679 0.1536089927
          3.3886699677 0.01943529956 0.25713300705 3.1743099689 -0.022352099419 0.31030499935
          -1.4028999805 0.13422000408 0.12791000307 -1.3192800283 -0.11339899898 0.070827797055
          -1.5096600056 -0.035843800753 0.024828599766 -1.334980011 -0.066682696342 0.27562999725
          4.8203802109 0.5 -0.047230999917 4.8432202339 0.33124399185 0.15127900243
          4.8058700562 0.17079499364 -0.0053127701394 4.5822200775 0.29958099127 -0.0073895901442
          -4.022600174 -0.31765198708 -0.031538199633 -4.0541300774 -0.5 -0.16820600629
          -4.2342700958 -0.2943969965 -0.036790598184 -4.2580599785 -0.5 -0.032561998814
          -4.1763601303 0.12014900148 -0.5 -4.2389798164 0.42935600877 -0.5
          -4.2864198685 0.30046600103 -0.30744600296 -4.3405499458 0.17424100637 -0.5
          -2.8483600616 -0.1823129952 -0.18523199856 -2.7003099918 -0.5 -0.15431599319
          -2.6965899467 -0.25478899479 0.070601798594 -2.6087799072 -0.18399499357 -0.098889403045
          0.27188199759 -0.21608300507 -0.19496400654 0.10427799821 -0.31776800752 -0.01549869962
          0.02034159936 -0.29206499457 -0.27554398775 -0.014450499788 -0.12391400337 -0.11072800308
          3.993170023 -0.055373799056 0.5 4.2180900574 0.013842199929 0.5
          4.1193199158 0.19485099614 0.5 4.0886101723 0.063145399094 0.2613709867
          1.3350299597 0.5 0.26320800185 1.142539978 0.300906986 0.29215401411
          1.4897999763 0.29271999002 0.26752799749 1.2676099539 0.18327300251 0.17430500686
          1.0667099953 0.30986699462 -0.00099666800816 1.0695999861 0.5 0.21742899716
          0.96667098999 0.22423000634 0.21116599441 0.85752302408 0.5 0.012258999981
          1.0667099953 0.30986699462 -0.00099666800816 1.2041200399 0.21308499575 -0.18568199873
          0.89332699776 0.23076300323 -0.16234900057 1.0260499716 0.011771400459 0.016185000539
          0.02034159936 -0.29206499457 -0.27554398775 -0.17599500716 -0.47140499949 -0.5
          -0.094856999815 -0.5 -0.28745400906 0.1349440068 -0.5 -0.49112400413
          -0.1279810071 -0.26361098886 -0.5 -0.17599500716 -0.47140499949 -0.5
          -0.094856999815 -0.5 -0.28745400906 0.02034159936 -0.29206499457 -0.27554398775
          1.9567300081 0.0023706499487 0.0081458101049 1.8725500107 0.093445502222 -0.32259699702
          1.7197300196 -0.0059337001294 -0.015229499899 1.9453500509 -0.087545797229 -0.2573390007
          0.27188199759 -0.21608300507 -0.19496400654 0.10427799821 -0.31776800752 -0.01549869962
          0.12759399414 -0.5 -0.23184600472 0.02034159936 -0.29206499457 -0.27554398775
          1.9453500509 -0.087545797229 -0.2573390007 1.7197300196 -0.0059337001294 -0.015229499899
          1.6971999407 -0.18535399437 -0.17042499781 1.8725500107 0.093445502222 -0.32259699702
          -0.1279810071 -0.26361098886 -0.5 -0.17599500716 -0.47140499949 -0.5
          0.02034159936 -0.29206499457 -0.27554398775 0.1349440068 -0.5 -0.49112400413
          4.3434801102 -0.13885499537 0.17381000519 4.039850235 -0.20272299647 0.21478900313
          4.0779399872 0.0020779399201 -0.0058176601306 4.0886101723 0.063145399094 0.2613709867
          0.7291790247 -0.29900100827 0.29153800011 0.65357899666 -0.5 0.40985101461
          0.53568398952 -0.32191199064 0.5 0.74645501375 -0.33665299416 0.5
          -3.822799921 0.5 -0.16184200346 -4.1164798737 0.5 -0.23297099769
          -4.0201997757 0.5 0.0039351000451 -3.8989500999 0.24744200706 -0.23554000258
          -4.4446802139 0.5 0.46802300215 -4.261590004 0.5 0.28367200494
          -4.5338001251 0.5 0.29403999448 -4.4165802002 0.22745400667 0.23878499866
          -4.6791801453 0.16429899633 0.5 -4.5181999207 0.028785899282 0.28230598569
          -4.7226400375 0.0055706598796 0.5 -4.513229847 -0.036582600325 0.5
          1.9660799503 -0.216049999 0.5 1.8388400078 -0.37851500511 0.5
          1.8512899876 -0.25720700622 0.29749301076 1.8240200281 -0.074077397585 0.5
          -3.7506599426 -0.28654700518 -0.026961300522 -3.8897199631 -0.5 0.01333339978
          -3.5598199368 -0.5 0.038439199328 -3.8106400967 -0.5 -0.18066500127
          -4.5665698051 0.35982298851 0.5 -4.5957798958 0.24809199572 0.32881501317
          -4.7492098808 0.3132250011 0.5 -4.6791801453 0.16429899633 0.5
          0.57815998793 -0.31825500727 -0.050177000463 0.52369099855 -0.25701698661 -0.29001700878
          0.70115399361 -0.13068500161 -0.12672199309 0.48660299182 -0.097960598767 -0.14581799507
          -2.5264899731 0.5 -0.0051567801274 -2.5539898872 0.16441999376 -0.075327299535
          -2.4123599529 0.30793198943 -0.0017855500337 -2.6490800381 0.5 -0.17990100384
          -4.0616898537 0.31015700102 -0.5 -4.0041999817 0.10439799726 -0.5
          -3.8989500999 0.24744200706 -0.23554000258 -3.8300800323 0.22917799652 -0.5
          -0.21006199718 -0.066769301891 -0.5 -0.29398798943 -0.19200000167 -0.2282319963
          -0.46434998512 -0.23358699679 -0.5 -0.46267700195 -0.020818000659 -0.27643701434
          -0.33964401484 -0.12936100364 0.5 -0.29698100686 -0.33138298988 0.28727200627
          -0.35255399346 0.016716400161 0.25871700048 -0.47073799372 -0.22246700525 0.21898700297
          -2.6132099628 -0.29757499695 -0.26779401302 -2.6364200115 -0.0513737984 -0.25086298585
          -2.8483600616 -0.1823129952 -0.18523199856 -2.6997199059 -0.29153099656 -0.5
          -3.606400013 -0.5 0.29930099845 -3.7172999382 -0.46028399467 0.5
          -3.7068300247 -0.31349000335 0.29142400622 -3.5468900204 -0.30179598927 0.5
          -4.5338001251 0.5 0.29403999448 -4.6425299644 0.5 0.1688580066
          -4.5957798958 0.24809199572 0.32881501317 -4.5506501198 0.30194398761 0.066922001541
          -3.6554999352 0.5 -0.12951600552 -3.822799921 0.5 -0.16184200346
          -3.7612600327 0.27116200328 0.015408799984 -3.6415400505 0.18903900683 -0.16241000593
          -3.6554999352 0.5 -0.12951600552 -3.822799921 0.5 -0.16184200346
          -3.7465999126 0.5 0.026138799265 -3.7612600327 0.27116200328 0.015408799984
          -3.8818199635 0.0094203203917 -0.0044903801754 -4.0238199234 -0.033451199532 0.28527000546
          -3.8861699104 0.22745600343 0.24729199708 -3.776599884 -0.0024208100513 0.27819898725
          -4.0642700195 0.5 0.20991900563 -4.0860900879 0.5 0.47527000308
          -3.8746600151 0.5 0.47712299228 -4.1248002052 0.32227998972 0.33130601048
          -0.085543900728 0.5 0.4370740056 -0.31256601214 0.5 0.24124599993
          -0.16925099492 0.29148900509 0.27573001385 -0.10846299678 0.5 0.18573200703
          1.0224000216 0.5 0.41114699841 1.1301300526 0.30475699902 0.5
          1.142539978 0.300906986 0.29215401411 0.94293701649 0.27613300085 0.5
          -0.77074998617 -0.30250000954 -0.3132340014 -0.7991899848 -0.42665201426 -0.5
          -0.86342602968 -0.5 -0.2539960146 -0.56736600399 -0.5 -0.39558899403
          -1.0093300343 -0.26582100987 -0.5 -1.1352299452 -0.30921301246 -0.27610599995
          -0.77074998617 -0.30250000954 -0.3132340014 -0.86342602968 -0.5 -0.2539960146
          -3.4054200649 -0.24873800576 -0.029902800918 -3.6202099323 -0.16945900023 0.16224400699
          -3.353219986 0.018101999536 -0.0069937198423 -3.2899799347 -0.19551900029 0.21153800189
          0.80673497915 0.05526150018 -0.040332399309 1.0260499716 0.011771400459 0.016185000539
          0.89332699776 0.23076300323 -0.16234900057 0.93065899611 -0.030296299607 -0.23989999294
          0.23762199283 -0.5 0.14814600348 0.36774501204 -0.27583301067 0.050296399742
          0.5135999918 -0.5 0.087553098798 0.40799000859 -0.5 0.24458500743
          -0.29398798943 -0.19200000167 -0.2282319963 -0.40286201239 -0.0046954802237 -0.0054140798748
          -0.169242993 0.019168399274 -0.0072063799016 -0.18628300726 -0.26750600338 -0.029726099223
          3.495059967 0.19994699955 0.5 3.3886699677 0.01943529956 0.25713300705
          3.3009901047 0.050491899252 0.5 3.657200098 0.044741101563 0.5
          1.0351999998 0.5 -0.23184999824 1.0667099953 0.30986699462 -0.00099666800816
          0.89332699776 0.23076300323 -0.16234900057 0.85752302408 0.5 0.012258999981
          -2.5264899731 0.5 -0.0051567801274 -2.7622299194 0.5 0.0010923099471
          -2.6367399693 0.26534798741 0.078260503709 -2.6490800381 0.5 -0.17990100384
          0.45764601231 0.28433001041 0.29305499792 0.46921399236 0.2665579915 0.056172598153
          0.58821898699 0.5 0.18288999796 0.27400401235 0.5 0.12896299362
          0.45764601231 0.28433001041 0.29305499792 0.25142499804 0.20395800471 0.20601199567
          0.46921399236 0.2665579915 0.056172598153 0.27400401235 0.5 0.12896299362
          -0.94314199686 -0.25431698561 0.040656600147 -1.1115700006 -0.5 0.061790000647
          -0.87598198652 -0.27951401472 0.27214699984 -0.91965401173 -0.5 0.069327197969
          2.4116399288 0.33501198888 0.26824301481 2.0367600918 0.30077698827 0.30471900105
          2.1185901165 0.5 0.19517299533 2.2874000072 0.5 0.36383101344
          2.3991000652 0.5 0.11198899895 2.4116399288 0.33501198888 0.26824301481
          2.4481799603 0.24948500097 0.0013240700355 2.2155299187 0.29384601116 -0.016047000885
          -0.085543900728 0.5 0.4370740056 0.057354498655 0.2768329978 0.30196899176
          0.16596199572 0.5 0.45811799169 0.086996898055 0.5 0.2632420063
          -0.10846299678 0.5 0.18573200703 0.057354498655 0.2768329978 0.30196899176
          0.086996898055 0.5 0.2632420063 0.067414298654 0.5 0.05388860032
          0.57046198845 0.31609800458 0.5 0.33892700076 0.20277099311 0.5
          0.5860620141 0.083102703094 0.5 0.45764601231 0.28433001041 0.29305499792
          0.45764601231 0.28433001041 0.29305499792 0.25142499804 0.20395800471 0.20601199567
          0.46630200744 0.046083901078 0.25881299376 0.46921399236 0.2665579915 0.056172598153
          3.3973500729 0.5 -0.34653198719 3.2970399857 0.30501198769 -0.2939350009
          3.4734098911 0.21108800173 -0.2205349952 3.5376200676 0.42240199447 -0.5
          0.52369099855 -0.25701698661 -0.29001700878 0.39225000143 -0.46847999096 -0.5
          0.60203802586 -0.41157200933 -0.5 0.29461199045 -0.27944099903 -0.5
          0.52369099855 -0.25701698661 -0.29001700878 0.29461199045 -0.27944099903 -0.5
          0.60203802586 -0.41157200933 -0.5 0.39225000143 -0.090401999652 -0.5
          0.52369099855 -0.25701698661 -0.29001700878 0.60203802586 -0.41157200933 -0.5
          0.69139498472 -0.21342000365 -0.5 0.39225000143 -0.090401999652 -0.5
          1.4891799688 -0.27188199759 0.26980000734 1.4243400097 -0.5 0.34605500102
          1.4357299805 -0.35067200661 0.5 1.6531300545 -0.5 0.42902299762
          -2.6997199059 -0.29153099656 -0.5 -2.9157800674 -0.27548700571 -0.5
          -2.8245999813 -0.5 -0.29598200321 -2.704449892 -0.5 -0.44117501378
          -4.3720297813 -0.5 0.12119200081 -4.5986700058 -0.5 0.27377399802
          -4.5130600929 -0.32579600811 0.18804700673 -4.3996100426 -0.5 0.31058299541
          0.33892700076 0.20277099311 0.5 0.2923809886 -0.092951200902 0.5
          0.47176000476 -0.12052799761 0.5 0.46630200744 0.046083901078 0.25881299376
          0.69335997105 0.13933600485 0.14205299318 0.46921399236 0.2665579915 0.056172598153
          0.58827602863 -0.023083500564 0.03204099834 0.58461797237 0.18660899997 -0.17640599608
          3.495059967 0.19994699955 0.5 3.5617899895 0.20520099998 0.20095099509
          3.6032299995 -0.0550327003 0.29886201024 3.657200098 0.044741101563 0.5
          4.6908898354 0.5 -0.18460099399 4.4144301414 0.5 -0.014668799937
          4.5328998566 0.5 0.15708899498 4.5822200775 0.29958099127 -0.0073895901442
          1.0260499716 0.011771400459 0.016185000539 1.0831899643 -0.026730500162 0.28337299824
          1.2676099539 0.18327300251 0.17430500686 1.2553399801 0.02869570069 -0.044535700232
          4.1330800056 -0.018558099866 -0.5 3.9156999588 -0.083973996341 -0.5
          4.1566100121 -0.01251959987 -0.28246301413 4.0967798233 -0.21491999924 -0.5
          4.7783799171 -0.058915100992 0.015639599413 4.7696099281 -0.016697799787 -0.29300200939
          5 -0.025442499667 -0.21136300266 5 0.040265500546 -0.029345599934
          -2.3285899162 -0.077071398497 0.5 -2.1791601181 0.066247500479 0.26825898886
          -2.4325098991 0.0032291798852 0.31787699461 -2.1809399128 -0.24249899387 0.24300700426
          -0.63264602423 -0.32936599851 0.064718000591 -0.78096401691 -0.28885498643 -0.091540999711
          -0.79164099693 -0.5 -0.074961297214 -0.59884798527 -0.5 -0.081100203097
          0.71499300003 0.033225100487 -0.28708100319 0.67495399714 0.10961399972 -0.5
          0.5808069706 -0.057113301009 -0.5 0.82831698656 0.016366999596 -0.5
          3.1800200939 0.15828900039 0.1766680032 3.1624600887 -0.015569499694 -0.02179059945
          2.9201900959 0.0039753098972 -0.016150400043 2.9353599548 0.054025001824 0.25657498837
          -0.94314199686 -0.25431698561 0.040656600147 -0.93832302094 -0.045258000493 0.24930199981
          -0.81901800632 -0.064964897931 -0.069114297628 -0.74051898718 -0.13983599842 0.1276730001
          0.46921399236 0.2665579915 0.056172598153 0.46630200744 0.046083901078 0.25881299376
          0.3682860136 0.00067014299566 0.0082637900487 0.25142499804 0.20395800471 0.20601199567
          0.69335997105 0.13933600485 0.14205299318 0.71180897951 0.31379199028 -0.019653400406
          0.46921399236 0.2665579915 0.056172598153 0.58461797237 0.18660899997 -0.17640599608
          -4.3864398003 0.25989100337 -0.089046299458 -4.4165802002 0.22745400667 0.23878499866
          -4.411260128 -0.00020594299713 -0.0010824199999 -4.5506501198 0.30194398761 0.066922001541
          0.5808069706 -0.057113301009 -0.5 0.71499300003 0.033225100487 -0.28708100319
          0.52369099855 -0.25701698661 -0.29001700878 0.48660299182 -0.097960598767 -0.14581799507
          1.4679900408 -0.23194299638 -0.032342601568 1.4909499884 0.035039100796 0.2443370074
          1.6828099489 -0.15067499876 0.17043499649 1.298789978 -0.15092399716 0.16408100724
          -2.0084600449 0.5 0.30924999714 -2.131000042 0.5 0.14166200161
          -1.9560199976 0.18910500407 0.17773799598 -1.9903299809 0.30669298768 -0.0096472296864
          -1.7309900522 0.022700900212 -0.2696749866 -1.9522600174 -0.011583000422 -0.29229301214
          -1.9544999599 -0.19884000719 -0.16746899486 -1.670410037 -0.23073199391 -0.21768200397
          -1.7309900522 0.022700900212 -0.2696749866 -1.9544999599 -0.19884000719 -0.16746899486
          -1.730610013 -0.00066968100145 -0.0049977498129 -1.670410037 -0.23073199391 -0.21768200397
          0.35873600841 0.27615499496 -0.16060699522 0.22253899276 0.29792100191 -0.30861100554
          0.27108699083 0.5 -0.08351060003 0.20313000679 0.30061998963 0.0047877700999
          4.7696099281 -0.016697799787 -0.29300200939 5 0.16910900176 -0.16435900331
          4.8905501366 0.13403299451 -0.5 5 -0.025442499667 -0.21136300266
          -2.6367399693 0.26534798741 0.078260503709 -2.7622299194 0.5 0.0010923099471
          -2.8308598995 0.31636199355 -0.103422001 -2.6490800381 0.5 -0.17990100384
          4.4824900627 -0.2778429985 0.28902798891 4.5015702248 0.045086801052 0.27461698651
          4.3434801102 -0.13885499537 0.17381000519 4.6710700989 -0.19623799622 0.19057400525
          3.6745901108 -0.5 -0.024972600862 3.6361598969 -0.5 0.14722600579
          3.6328399181 -0.30484598875 0.056098300964 3.8067100048 -0.5 0.09490519762
          4.7109298706 -0.5 0.037262801081 4.814139843 -0.29069000483 0.014058699831
          4.9067702293 -0.5 -0.13576300442 5 -0.40549901128 0.09935849905
          -0.24800799787 0.0088232699782 -0.29918900132 -0.25742098689 0.29623898864 -0.3442530036
          -0.18946300447 0.17974199355 -0.1773750037 -0.47644600272 0.21734400094 -0.22011299431
          0.36774501204 -0.27583301067 0.050296399742 0.23762199283 -0.5 0.14814600348
          0.5135999918 -0.5 0.087553098798 0.2626529932 -0.5 -0.065027400851
          0.5135999918 -0.5 0.087553098798 0.2626529932 -0.5 -0.065027400851
          0.42797398567 -0.5 -0.20191599429 0.36774501204 -0.27583301067 0.050296399742
          4.5181698799 -0.25569599867 -0.00080205698032 4.4824900627 -0.2778429985 0.28902798891
          4.3434801102 -0.13885499537 0.17381000519 4.6710700989 -0.19623799622 0.19057400525
          -3.1326100826 -0.026751099154 0.30142500997 -3.2899799347 -0.19551900029 0.21153800189
          -3.0034298897 -0.12146800011 0.11256500334 -3.119879961 0.056279499084 0.0078261103481
          -0.28134599328 -0.29646700621 0.5 -0.33964401484 -0.12936100364 0.5
          -0.17885400355 -0.17817400396 0.19088800251 -0.10501199961 -0.31161299348 0.5
          -4.1456699371 -0.049980100244 -0.5 -4.0041999817 0.10439799726 -0.5
          -4.0346798897 -0.02448659949 -0.29127898812 -4.1763601303 0.12014900148 -0.5
          4.814139843 -0.29069000483 0.014058699831 5 -0.14510799944 -0.050927400589
          5 -0.20979200304 0.28537601233 4.7783799171 -0.058915100992 0.015639599413
          -3.387419939 -0.020452000201 -0.26496699452 -3.4054200649 -0.24873800576 -0.029902800918
          -3.1692500114 -0.17956000566 -0.18042400479 -3.406719923 -0.26567399502 -0.27803298831
          -0.020521700382 0.27518200874 -0.3097819984 0.14069800079 0.16885900497 -0.17604699731
          -0.18946300447 0.17974199355 -0.1773750037 -0.021123599261 0.2901929915 -0.037268299609
          4.5256800652 -0.098457798362 -0.5 4.4943199158 0.06769169867 -0.29010298848
          4.4979701042 0.25243699551 -0.5 4.6631398201 0.058381199837 -0.5
          4.4943199158 0.06769169867 -0.29010298848 4.7124700546 0.20787400007 -0.21475000679
          4.4979701042 0.25243699551 -0.5 4.6631398201 0.058381199837 -0.5
          -3.5974299908 0.015700999647 0.0042460002005 -3.353219986 0.018101999536 -0.0069937198423
          -3.6202099323 -0.16945900023 0.16224400699 -3.40102005 0.049610700458 0.26974400878
          3.1808700562 0.17408800125 -0.17278499901 3.120470047 -0.021967599168 -0.27757799625
          2.9765999317 0.15742999315 -0.14321500063 3.1624600887 -0.015569499694 -0.02179059945
          0.25995999575 0.5 0.30666300654 0.057354498655 0.2768329978 0.30196899176
          0.33892700076 0.20277099311 0.5 0.25142499804 0.20395800471 0.20601199567
          3.3437099457 0.5 0.098416596651 3.2946200371 0.5 -0.20856200159
          3.2171900272 0.5 -0.054951798171 3.3688399792 0.28460401297 0.022468499839
          2.8704299927 -0.5 -0.1951110065 3.0969901085 -0.5 -0.1024639979
          2.809910059 -0.30858701468 -0.088228099048 2.9524600506 -0.22408300638 -0.21185599267
          -2.4248900414 -0.10110799968 -0.5 -2.4834799767 -0.27802801132 -0.5
          -2.5989000797 -0.16783699393 -0.5 -2.4208400249 -0.17098300159 -0.17608100176
          -3.1171200275 -0.32041800022 0.23436300457 -3.2333400249 -0.5 0.24993300438
          -2.962280035 -0.5 0.2204490006 -3.0793800354 -0.5 0.028451299295
          0.15296399593 -0.18104599416 0.18370200694 0.23762199283 -0.5 0.14814600348
          0.36774501204 -0.27583301067 0.050296399742 0.10427799821 -0.31776800752 -0.01549869962
          -3.1584899426 -0.5 -0.16631600261 -3.4054200649 -0.24873800576 -0.029902800918
          -3.3001599312 -0.5 -0.014418800361 -3.406719923 -0.26567399502 -0.27803298831
          2.4395799637 -0.026134699583 0.038382198662 2.2194900513 -0.0036427800078 0.3248629868
          2.4428100586 0.10961800069 0.26388600469 2.4458899498 -0.25059598684 0.23923400044
          4.7124700546 0.20787400007 -0.21475000679 4.7783799171 -0.058915100992 0.015639599413
          4.7696099281 -0.016697799787 -0.29300200939 4.5567698479 0.040265500546 -0.029345599934
          4.6710700989 -0.19623799622 0.19057400525 4.6142997742 -0.33187198639 0.5
          4.8106999397 -0.29430899024 0.31109198928 4.4824900627 -0.2778429985 0.28902798891
          -0.14947299659 -0.5 -0.13736000657 -0.30116099119 -0.5 -0.18737800419
          -0.18628300726 -0.26750600338 -0.029726099223 -0.22633899748 -0.5 0.0026503999252
          -3.7068300247 -0.31349000335 0.29142400622 -3.5468900204 -0.30179598927 0.5
          -3.5133900642 -0.13522699475 0.5 -3.4786798954 -0.29719600081 0.28423199058
          -3.7068300247 -0.31349000335 0.29142400622 -3.725509882 -0.28060400486 0.5
          -3.5133900642 -0.13522699475 0.5 -3.5468900204 -0.30179598927 0.5
          -4.0041999817 0.10439799726 -0.5 -3.8436501026 -0.17188200355 -0.5
          -4.0139598846 -0.2127609998 -0.5 -4.0346798897 -0.02448659949 -0.29127898812
          0.50762802362 0.094153903425 -0.5 0.49744200706 0.32136800885 -0.31016400456
          0.57893800735 0.29019400477 -0.5 0.67495399714 0.10961399972 -0.5
          1.5854899883 0.5 -0.19192999601 1.6601899862 0.29914501309 -0.0094896201044
          1.8845000267 0.5 -0.10376700014 1.6638499498 0.32388100028 -0.30573499203
          0.22253899276 0.29792100191 -0.30861100554 0.075165897608 0.5 -0.16578200459
          0.20313000679 0.30061998963 0.0047877700999 0.14069800079 0.16885900497 -0.17604699731
          1.4673299789 -0.16130299866 -0.30513200164 1.4679900408 -0.23194299638 -0.032342601568
          1.2388900518 -0.17473700643 -0.16655999422 1.4914300442 0.0569607988 -0.04182960093
          -3.1703898907 -0.28369298577 0.029881799594 -3.0793800354 -0.5 0.028451299295
          -3.1171200275 -0.32041800022 0.23436300457 -2.9412100315 -0.31262499094 -0.011466300115
          1.6971999407 -0.18535399437 -0.17042499781 1.4679900408 -0.23194299638 -0.032342601568
          1.4673299789 -0.16130299866 -0.30513200164 1.4914300442 0.0569607988 -0.04182960093
          -3.7646200657 -0.015583699569 -0.5 -3.7279200554 -0.31415998936 -0.27874299884
          -3.8436501026 -0.17188200355 -0.5 -3.8034300804 0.010254199617 -0.24826699495
          2.6219000816 -0.015453300439 0.30282199383 2.3842000961 -0.1629229933 0.5
          2.4458899498 -0.25059598684 0.23923400044 2.4428100586 0.10961800069 0.26388600469
          -3.4390599728 0.16396200657 -0.12648099661 -3.3652899265 0.29221200943 0.018539199606
          -3.353219986 0.018101999536 -0.0069937198423 -3.5974299908 0.015700999647 0.0042460002005
          4.6710700989 -0.19623799622 0.19057400525 4.794479847 -0.0099189598113 0.26575800776
          4.7783799171 -0.058915100992 0.015639599413 5 -0.20979200304 0.28537601233
          -3.3868999481 0.28687500954 0.25560098886 -3.6247899532 0.5 0.17990300059
          -3.5453898907 0.5 0.00052557198796 -3.475399971 0.5 0.31425100565
          4.0779399872 0.0020779399201 -0.0058176601306 3.8664000034 0.19483299553 0.16909499466
          3.9352300167 -0.034624699503 0.14412599802 3.8543400764 -0.043197199702 -0.061682298779
          0.68863600492 -0.5 0.092009201646 0.78195297718 -0.29943698645 0.031285099685
          0.58512401581 -0.18639500439 0.18318599463 0.57815998793 -0.31825500727 -0.050177000463
          -1.7420699596 0.2584669888 -0.11043199897 -2.0033299923 0.17082899809 -0.16009199619
          -1.730610013 -0.00066968100145 -0.0049977498129 -1.7309900522 0.022700900212 -0.2696749866
          -4.1164798737 0.5 -0.23297099769 -4.4078397751 0.5 -0.27026000619
          -4.2751197815 0.5 0.02419850044 -4.2864198685 0.30046600103 -0.30744600296
          1.5849699974 -0.077601596713 0.5 1.4909499884 0.035039100796 0.2443370074
          1.71875 0.012455300428 0.32105600834 1.6280800104 0.11417599767 0.5
          1.71875 0.012455300428 0.32105600834 1.4909499884 0.035039100796 0.2443370074
          1.7132099867 0.18727500737 0.17964400351 1.6280800104 0.11417599767 0.5
          1.9551000595 0.040498699993 0.28340399265 1.71875 0.012455300428 0.32105600834
          1.9254900217 0.21205799282 0.5 1.8240200281 -0.074077397585 0.5
          -1.7309900522 0.022700900212 -0.2696749866 -1.890920043 -0.16450600326 -0.5
          -1.670410037 -0.23073199391 -0.21768200397 -1.6403199434 -0.1704210043 -0.5
          -1.8528900146 0.074574902654 -0.5 -1.890920043 -0.16450600326 -0.5
          -1.7309900522 0.022700900212 -0.2696749866 -1.6403199434 -0.1704210043 -0.5
          -1.6108299494 0.078509502113 -0.5 -1.8528900146 0.074574902654 -0.5
          -1.7309900522 0.022700900212 -0.2696749866 -1.6403199434 -0.1704210043 -0.5
          4.317220211 0.013630899601 -0.032561101019 4.4943199158 0.06769169867 -0.29010298848
          4.3479599953 -0.069560296834 -0.31158301234 4.5178999901 -0.10659900308 -0.17478400469
          1.8240200281 -0.074077397585 0.5 1.5849699974 -0.077601596713 0.5
          1.71875 0.012455300428 0.32105600834 1.6280800104 0.11417599767 0.5
          1.71875 0.012455300428 0.32105600834 1.6280800104 0.11417599767 0.5
          1.9254900217 0.21205799282 0.5 1.8240200281 -0.074077397585 0.5
          -1.7309900522 0.022700900212 -0.2696749866 -1.670410037 -0.23073199391 -0.21768200397
          -1.730610013 -0.00066968100145 -0.0049977498129 -1.5251499414 -0.076651901007 -0.31482899189
          3.2087500095 0.49311301112 0.5 3.0071001053 0.30889099836 0.30772000551
          3.1938300133 0.27075499296 0.5 3.3330900669 0.5 0.31517699361
          3.2087500095 0.49311301112 0.5 3.1571199894 0.5 0.16706800461
          3.0071001053 0.30889099836 0.30772000551 3.3330900669 0.5 0.31517699361
          -0.6270070076 -0.18018999696 -0.18880400062 -0.74285399914 0.13776800036 -0.12904399633
          -0.62403798103 0.035430200398 0.037675399333 -0.81901800632 -0.064964897931 -0.069114297628
          -0.93913400173 -0.20071199536 -0.20192199945 -1.0007799864 -0.5 -0.1113319993
          -1.1855100393 -0.25224798918 -0.0140108997 -0.94314199686 -0.25431698561 0.040656600147
          2.9524600506 -0.22408300638 -0.21185599267 2.7792201042 -0.32771399617 -0.28562399745
          2.7578799725 -0.10127799958 -0.5 2.6635499001 -0.0075318100862 -0.31723999977
          2.7578799725 -0.10127799958 -0.5 2.9524600506 -0.22408300638 -0.21185599267
          2.9589400291 -0.2156240046 -0.5 2.7792201042 -0.32771399617 -0.28562399745
          -1.7749300003 -0.093701399863 0.5 -1.9165099859 0.082864999771 0.5
          -1.9607599974 -0.22289100289 0.5 -1.9649800062 -0.0049698902294 0.29592001438
          -1.6999100447 -0.016917800531 0.25771600008 -1.9649800062 -0.0049698902294 0.29592001438
          -1.7268799543 -0.26261898875 0.29539200664 -1.9215400219 -0.19377499819 0.17684599757
          -2.1809399128 -0.24249899387 0.24300700426 -1.9649800062 -0.0049698902294 0.29592001438
          -2.1791601181 0.066247500479 0.26825898886 -2.187210083 -0.061865199357 0.039609499276
          -1.6999100447 -0.016917800531 0.25771600008 -1.9560199976 0.18910500407 0.17773799598
          -1.9649800062 -0.0049698902294 0.29592001438 -1.9655499458 0.017111200839 0.015656199306
          -0.75955200195 0.2530399859 -0.5 -0.63783198595 0.084412999451 -0.319272995
          -0.72751402855 0.0171670001 -0.5 -0.89940702915 0.048585001379 -0.5
          2.3315200806 0.075631901622 0.5 2.2269999981 0.29644799232 0.5
          2.1986699104 0.16770100594 0.18445199728 2.4428100586 0.10961800069 0.26388600469
          3.9085800648 0.5 -0.15719300508 4.0785198212 0.2688550055 0.022481000051
          4.0127902031 0.5 -0.00039253599243 4.1033101082 0.5 -0.16609400511
          3.7404100895 0.5 0.40195301175 3.730809927 0.29602000117 0.3136009872
          3.5066199303 0.45685198903 0.5 3.8128800392 0.20643000305 0.5
          -0.11969800293 0.24129599333 0.5 -0.10500200093 -0.014513599686 0.5
          0.083770796657 0.16607399285 0.5 -0.16119599342 0.084271103144 0.32078498602
          -2.1791601181 0.066247500479 0.26825898886 -2.1011199951 0.16092300415 0.5
          -1.9649800062 -0.0049698902294 0.29592001438 -2.1403698921 -0.070216402411 0.5
          3.2362499237 -0.1912920028 -0.17273800075 3.4506099224 -0.25270500779 -0.04623780027
          3.4532198906 -0.27570098639 -0.28086999059 3.3585400581 -0.5 -0.16122399271
          3.4916698933 -0.37139999866 -0.5 3.4951400757 -0.11613500118 -0.5
          3.4532198906 -0.27570098639 -0.28086999059 3.190030098 -0.22524799407 -0.5
          1.8512899876 -0.25720700622 0.29749301076 1.6337100267 -0.2680259943 0.5
          1.6828099489 -0.15067499876 0.17043499649 1.71875 0.012455300428 0.32105600834
          -1.7309900522 0.022700900212 -0.2696749866 -2.0033299923 0.17082899809 -0.16009199619
          -1.730610013 -0.00066968100145 -0.0049977498129 -1.9655499458 0.017111200839 0.015656199306
          -1.8892199993 -0.5 -0.034159000963 -1.9544999599 -0.19884000719 -0.16746899486
          -2.0675001144 -0.32273799181 0.069159403443 -2.0754799843 -0.5 -0.065173096955
          -1.8138200045 -0.5 0.13895599544 -1.728489995 -0.2819840014 0.029070099816
          -2.0675001144 -0.32273799181 0.069159403443 -1.8892199993 -0.5 -0.034159000963
          1.4914300442 0.0569607988 -0.04182960093 1.4356100559 0.30725300312 0.014958400279
          1.4909499884 0.035039100796 0.2443370074 1.2676099539 0.18327300251 0.17430500686
          1.4914300442 0.0569607988 -0.04182960093 1.7132099867 0.18727500737 0.17964400351
          1.4909499884 0.035039100796 0.2443370074 1.4356100559 0.30725300312 0.014958400279
          2.3991000652 0.5 0.11198899895 2.1185901165 0.5 0.19517299533
          2.2155299187 0.29384601116 -0.016047000885 2.0984899998 0.5 -0.030215999112
          2.2502601147 0.5 -0.1980600059 2.4481799603 0.24948500097 0.0013240700355
          2.4688100815 0.27537798882 -0.28756999969 2.2155299187 0.29384601116 -0.016047000885
          2.94404006 -0.24824899435 0.048307999969 3.1743900776 -0.18350000679 0.1536089927
          3.0828099251 -0.5 0.29510200024 2.9692099094 -0.18215200305 0.27709600329
          2.3991000652 0.5 0.11198899895 2.0984899998 0.5 -0.030215999112
          2.2155299187 0.29384601116 -0.016047000885 2.2502601147 0.5 -0.1980600059
          -2.8483600616 -0.1823129952 -0.18523199856 -2.7003099918 -0.5 -0.15431599319
          -2.6087799072 -0.18399499357 -0.098889403045 -2.6132099628 -0.29757499695 -0.26779401302
          -0.59884798527 -0.5 -0.081100203097 -0.63264602423 -0.32936599851 0.064718000591
          -0.42740899324 -0.30482000113 -0.02907329984 -0.3753170073 -0.5 0.14234599471
          -5 -0.004447159823 0.13623799384 -5 -0.12896800041 0.37591099739
          -5 0.07584580034 0.38386198878 -4.8052501678 -0.030253799632 0.27854898572
          3.4302000999 -0.042014900595 -0.25968700647 3.2905800343 0.095524303615 -0.3324739933
          3.2644200325 -0.026787700132 -0.5 3.4120700359 0.12526200712 -0.5
          -3.6195299625 0.18837699294 0.1758890003 -3.6287798882 0.30937200785 0.33959800005
          -3.776599884 -0.0024208100513 0.27819898725 -3.8861699104 0.22745600343 0.24729199708
          -2.182790041 0.25494199991 0.029647100717 -2.187210083 -0.061865199357 0.039609499276
          -2.3996500969 0.17564900219 0.17784799635 -2.1791601181 0.066247500479 0.26825898886
          -1.6999100447 -0.016917800531 0.25771600008 -1.9560199976 0.18910500407 0.17773799598
          -1.9655499458 0.017111200839 0.015656199306 -1.730610013 -0.00066968100145 -0.0049977498129
          2.3120000362 -0.058240499347 -0.5 2.4390499592 -0.057027101517 -0.2462310046
          2.5377500057 -0.050653100014 -0.5 2.4597499371 -0.30076900125 -0.3059630096
          -2.471460104 0.079349301755 -0.5 -2.5989000797 -0.16783699393 -0.5
          -2.7017800808 -0.045854199678 -0.5 -2.6364200115 -0.0513737984 -0.25086298585
          -1.8121700287 0.32682698965 0.085832998157 -1.9903299809 0.30669298768 -0.0096472296864
          -1.7420699596 0.2584669888 -0.11043199897 -1.8758599758 0.5 -0.063933096826
          4.2944598198 0.20695400238 -0.17472800612 4.4943199158 0.06769169867 -0.29010298848
          4.501060009 0.27867999673 -0.21826599538 4.4979701042 0.25243699551 -0.5
          -2.6128799915 0.13250499964 0.27421799302 -2.8607199192 0.16806200147 0.1988620013
          -2.568860054 0.328433007 0.33221000433 -2.739109993 0.35740399361 0.5
          0.46921399236 0.2665579915 0.056172598153 0.3682860136 0.00067014299566 0.0082637900487
          0.58461797237 0.18660899997 -0.17640599608 0.35873600841 0.27615499496 -0.16060699522
          4.0127902031 0.5 -0.00039253599243 3.803839922 0.5 0.0072177099064
          3.867939949 0.29484701157 -0.023631099612 3.9085800648 0.5 -0.15719300508
          0.21745100617 -0.25824698806 0.5 0.2923809886 -0.092951200902 0.5
          0.25244501233 -0.012676700018 0.29410201311 0.37961798906 -0.27483201027 0.3045360148
          2.3607499599 -0.5 -0.025692699477 2.5833399296 -0.5 -0.06280399859
          2.4389500618 -0.2577829957 -0.080456696451 2.3567500114 -0.5 -0.25275498629
          2.9353599548 0.054025001824 0.25657498837 3.1800200939 0.15828900039 0.1766680032
          3.1743099689 -0.022352099419 0.31030499935 3.0071001053 0.30889099836 0.30772000551
          3.4012000561 -0.17302200198 0.5 3.1743099689 -0.022352099419 0.31030499935
          3.3886699677 0.01943529956 0.25713300705 3.3009901047 0.050491899252 0.5
          4.3278198242 -0.19421100616 -0.1541839987 4.1762099266 -0.5 -0.073627002537
          4.1566100121 -0.27463600039 -0.28568801284 4.1160001755 -0.25597798824 -0.023964699358
          3.9538800716 -0.19349299371 -0.21224999428 4.1160001755 -0.25597798824 -0.023964699358
          4.1566100121 -0.27463600039 -0.28568801284 4.0018801689 -0.5 -0.21358500421
          4.1566100121 -0.27463600039 -0.28568801284 4.1566100121 -0.01251959987 -0.28246301413
          4.3278198242 -0.19421100616 -0.1541839987 4.1160001755 -0.25597798824 -0.023964699358
          4.2686200142 -0.36589500308 -0.5 4.0967798233 -0.21491999924 -0.5
          4.1566100121 -0.27463600039 -0.28568801284 4.0595002174 -0.45859000087 -0.5
          -0.38922300935 -0.43621999025 -0.5 -0.56736600399 -0.5 -0.39558899403
          -0.46434998512 -0.23358699679 -0.5 -0.47420999408 -0.29338499904 -0.29220598936
          3.9538800716 -0.19349299371 -0.21224999428 4.1566100121 -0.01251959987 -0.28246301413
          4.1566100121 -0.27463600039 -0.28568801284 4.1160001755 -0.25597798824 -0.023964699358
          4.7140798569 -0.5 -0.1463650018 4.8028302193 -0.29806599021 -0.33157899976
          4.9067702293 -0.5 -0.13576300442 4.6962199211 -0.21809899807 -0.17522199452
          4.2686200142 -0.36589500308 -0.5 4.1566100121 -0.27463600039 -0.28568801284
          4.2013001442 -0.5 -0.3026599884 4.0595002174 -0.45859000087 -0.5
          -0.96304500103 0.042934101075 -0.20367699862 -1.0172100067 0.25485399365 -0.020222399384
          -0.81901800632 -0.064964897931 -0.069114297628 -1.0750999451 -0.011404699646 0.007108009886
          4.501060009 0.27867999673 -0.21826599538 4.5567698479 0.040265500546 -0.029345599934
          4.7124700546 0.20787400007 -0.21475000679 4.4943199158 0.06769169867 -0.29010298848
          0.95045101643 -0.36442101002 0.5 0.84539800882 -0.5 0.45313599706
          0.7291790247 -0.29900100827 0.29153800011 0.74645501375 -0.33665299416 0.5
          -0.50226300955 0.5 0.14767700434 -0.68823200464 0.30021798611 0.030239600688
          -0.61564701796 0.5 -0.067553699017 -0.77020597458 0.5 0.12030699849
          3.4346001148 0.010584499687 0.0013051299611 3.1808700562 0.17408800125 -0.17278499901
          3.4302000999 -0.042014900595 -0.25968700647 3.4734098911 0.21108800173 -0.2205349952
          -4.6675601006 -0.16073800623 -0.17753699422 -4.7819399834 -0.28898400068 -0.32071700692
          -4.7461600304 -0.5 -0.23019599915 -4.5859699249 -0.5 -0.20652399957
          -4.2864198685 0.30046600103 -0.30744600296 -4.500120163 0.30916801095 -0.29975399375
          -4.3864398003 0.25989100337 -0.089046299458 -4.4012899399 0.03873860091 -0.27101901174
          -1.6403199434 -0.1704210043 -0.5 -1.8430000544 -0.33087998629 -0.29164901376
          -1.6529099941 -0.5 -0.32333600521 -1.7048399448 -0.4852539897 -0.5
          -2.3996500969 0.17564900219 0.17784799635 -2.568860054 0.328433007 0.33221000433
          -2.4325098991 0.0032291798852 0.31787699461 -2.6128799915 0.13250499964 0.27421799302
          1.2525800467 -0.23895399272 0.5 1.1263699532 -0.31314399838 0.27022001147
          1.0831899643 -0.026730500162 0.28337299824 0.98047602177 -0.18917199969 0.5
          1.2525800467 -0.23895399272 0.5 1.1263699532 -0.31314399838 0.27022001147
          1.298789978 -0.15092399716 0.16408100724 1.0831899643 -0.026730500162 0.28337299824
          -2.182790041 0.25494199991 0.029647100717 -2.2191998959 0.31082698703 0.26025301218
          -2.2987000942 0.5 -0.012699699961 -2.131000042 0.5 0.14166200161
          1.1263699532 -0.31314399838 0.27022001147 0.89871001244 -0.21273000538 0.19672900438
          1.0831899643 -0.026730500162 0.28337299824 0.98047602177 -0.18917199969 0.5
          -4.1479997635 0.1524810046 0.18773500621 -4.2314600945 0.092286400497 0.01309709996
          -4.4165802002 0.22745400667 0.23878499866 -4.2407898903 -0.014909300022 0.29183000326
          -3.2058999538 0.30942299962 0.5 -3.0836999416 0.5 0.28708401322
          -3.138119936 0.5 0.48728901148 -3.2776799202 0.5 0.32763698697
          1.1263699532 -0.31314399838 0.27022001147 1.4243400097 -0.5 0.34605500102
          1.2694100142 -0.5 0.16097800434 1.2566000223 -0.4687319994 0.5
          0.17147399485 -0.046462800354 -0.28626099229 -0.11357299984 -0.14485199749 -0.33142700791
          -0.014450499788 -0.12391400337 -0.11072800308 0.02034159936 -0.29206499457 -0.27554398775
          -1.3262499571 0.2814899981 -0.050565201789 -1.3727099895 0.30601900816 0.28291600943
          -1.1475800276 0.23044300079 0.22876000404 -1.4028999805 0.13422000408 0.12791000307
          -1.3262499571 0.2814899981 -0.050565201789 -1.3363499641 0.5 0.056991901249
          -1.1475800276 0.23044300079 0.22876000404 -1.3727099895 0.30601900816 0.28291600943
          -5 -0.49631300569 0.38468599319 -4.794549942 -0.32775598764 0.30355900526
          -4.8936700821 -0.25269600749 0.5 -5 -0.26007699966 0.21836000681
          0.98047602177 -0.18917199969 0.5 0.95045101643 -0.36442101002 0.5
          0.89871001244 -0.21273000538 0.19672900438 0.7291790247 -0.29900100827 0.29153800011
          1.4909499884 0.035039100796 0.2443370074 1.6280800104 0.11417599767 0.5
          1.4897999763 0.29271999002 0.26752799749 1.7132099867 0.18727500737 0.17964400351
          4.6908898354 0.5 -0.18460099399 4.7387499809 0.5 0.12298899889
          4.8203802109 0.5 -0.047230999917 4.5822200775 0.29958099127 -0.0073895901442
          1.4897999763 0.29271999002 0.26752799749 1.7132099867 0.18727500737 0.17964400351
          1.626060009 0.5 0.34106299281 1.5800199509 0.5 0.11975900084
          2.5377500057 -0.050653100014 -0.5 2.6635499001 -0.0075318100862 -0.31723999977
          2.4597499371 -0.30076900125 -0.3059630096 2.4390499592 -0.057027101517 -0.2462310046
          1.626060009 0.5 0.34106299281 1.4934600592 0.40915301442 0.5
          1.688740015 0.32006499171 0.5 1.4897999763 0.29271999002 0.26752799749
          -1.9338200092 0.5 -0.29581001401 -2.141769886 0.5 -0.17799699306
          -2.0033299923 0.17082899809 -0.16009199619 -2.1895999908 0.28031998873 -0.27681100368
          -2.1895999908 0.28031998873 -0.27681100368 -2.1926898956 0.17790399492 -0.5
          -1.9816099405 0.27960699797 -0.5 -2.1567900181 0.5 -0.46172600985
          1.0695999861 0.5 0.21742899716 1.1859600544 0.5 0.33510899544
          1.142539978 0.300906986 0.29215401411 1.0224000216 0.5 0.41114699841
          -1.730610013 -0.00066968100145 -0.0049977498129 -1.6999100447 -0.016917800531 0.25771600008
          -1.728489995 -0.2819840014 0.029070099816 -1.9215400219 -0.19377499819 0.17684599757
          -4.1164798737 0.5 -0.23297099769 -4.2864198685 0.30046600103 -0.30744600296
          -4.2751197815 0.5 0.02419850044 -4.3864398003 0.25989100337 -0.089046299458
          -1.730610013 -0.00066968100145 -0.0049977498129 -1.6999100447 -0.016917800531 0.25771600008
          -1.5302300453 -0.20296399295 0.1751369983 -1.728489995 -0.2819840014 0.029070099816
          4.7387499809 0.5 0.12298899889 4.8042798042 0.5 0.31367200613
          4.9942002296 0.5 0.13716499507 4.8432202339 0.33124399185 0.15127900243
          -4.2024998665 0.29241999984 0.027058599517 -4.4328398705 0.5 0.16251300275
          -4.4165802002 0.22745400667 0.23878499866 -4.5506501198 0.30194398761 0.066922001541
          1.1710499525 0.11986300349 0.5 1.2891700268 0.025188799948 0.31899100542
          1.0831899643 -0.026730500162 0.28337299824 1.2525800467 -0.23895399272 0.5
          4.0779399872 0.0020779399201 -0.0058176601306 3.8664000034 0.19483299553 0.16909499466
          3.867939949 0.29484701157 -0.023631099612 4.0785198212 0.2688550055 0.022481000051
          2.3855099678 0.34596499801 -0.5 2.4688100815 0.27537798882 -0.28756999969
          2.6561300755 0.37442401052 -0.5 2.4803700447 0.1678159982 -0.5
          0.33892700076 0.20277099311 0.5 0.25244501233 -0.012676700018 0.29410201311
          0.2923809886 -0.092951200902 0.5 0.46630200744 0.046083901078 0.25881299376
          -2.4208400249 -0.17098300159 -0.17608100176 -2.2611498833 -0.21604500711 -0.31563100219
          -2.461810112 -0.5 -0.23160800338 -2.1942100525 -0.27436101437 -0.10729199648
          4.5424098969 -0.083453699946 0.5 4.5015702248 0.045086801052 0.27461698651
          4.6710700989 -0.19623799622 0.19057400525 4.794479847 -0.0099189598113 0.26575800776
          4.5015702248 0.045086801052 0.27461698651 4.794479847 -0.0099189598113 0.26575800776
          4.5567698479 0.040265500546 -0.029345599934 4.7783799171 -0.058915100992 0.015639599413
          -1.3560899496 -0.21440200508 0.5 -1.432109952 0.071380198002 0.5
          -1.5496799946 -0.11574400216 0.5 -1.334980011 -0.066682696342 0.27562999725
          -2.461810112 -0.5 -0.23160800338 -2.2611498833 -0.21604500711 -0.31563100219
          -2.4208400249 -0.17098300159 -0.17608100176 -2.6132099628 -0.29757499695 -0.26779401302
          3.495059967 0.19994699955 0.5 3.6032299995 -0.0550327003 0.29886201024
          3.3886699677 0.01943529956 0.25713300705 3.657200098 0.044741101563 0.5
          -2.1942100525 -0.27436101437 -0.10729199648 -2.2273199558 -0.5 -0.24430799484
          -2.461810112 -0.5 -0.23160800338 -2.32543993 -0.5 -0.016557699069
          2.8473100662 0.22374899685 0.5 2.5758199692 0.075252600014 0.5
          2.8023600578 -0.042083900422 0.5 2.6219000816 -0.015453300439 0.30282199383
          3.4532198906 -0.27570098639 -0.28086999059 3.7685399055 -0.11422099918 -0.34736299515
          3.7514400482 -0.26456600428 -0.5 3.6450901031 -0.17131699622 -0.19211299717
          3.7846400738 -0.3112359941 -0.2879639864 3.9538800716 -0.19349299371 -0.21224999428
          4.0018801689 -0.5 -0.21358500421 3.8334798813 -0.29951399565 -0.035472199321
          -4.4328398705 0.5 0.16251300275 -4.6425299644 0.5 0.1688580066
          -4.5338001251 0.5 0.29403999448 -4.5506501198 0.30194398761 0.066922001541
          -4.4328398705 0.5 0.16251300275 -4.5338001251 0.5 0.29403999448
          -4.4165802002 0.22745400667 0.23878499866 -4.5506501198 0.30194398761 0.066922001541
          3.790719986 -0.5 -0.15779900551 3.7846400738 -0.3112359941 -0.2879639864
          4.0018801689 -0.5 -0.21358500421 3.8334798813 -0.29951399565 -0.035472199321
          3.6745901108 -0.5 -0.024972600862 3.8334798813 -0.29951399565 -0.035472199321
          3.7846400738 -0.3112359941 -0.2879639864 3.790719986 -0.5 -0.15779900551
          3.7514400482 -0.26456600428 -0.5 3.7685399055 -0.11422099918 -0.34736299515
          3.7846400738 -0.3112359941 -0.2879639864 3.6450901031 -0.17131699622 -0.19211299717
          -0.92764699459 0.27740699053 -0.26456698775 -1.1828099489 0.5 -0.19919799268
          -1.0104800463 0.5 -0.2601659894 -1.0172100067 0.25485399365 -0.020222399384
          -2.5264899731 0.5 -0.0051567801274 -2.4123599529 0.30793198943 -0.0017855500337
          -2.4949100018 0.29038199782 -0.30940899253 -2.6490800381 0.5 -0.17990100384
          -3.9890100956 0.24387900531 0.0062287501059 -4.0642700195 0.5 0.20991900563
          -3.8539500237 0.5 0.19824199378 -3.8861699104 0.22745600343 0.24729199708
          -4.0201997757 0.5 0.0039351000451 -4.0642700195 0.5 0.20991900563
          -3.8539500237 0.5 0.19824199378 -3.9890100956 0.24387900531 0.0062287501059
          -1.5096600056 -0.035843800753 0.024828599766 -1.6999100447 -0.016917800531 0.25771600008
          -1.5302300453 -0.20296399295 0.1751369983 -1.730610013 -0.00066968100145 -0.0049977498129
          -2.2438600063 -0.050747901201 -0.5 -2.2611498833 -0.21604500711 -0.31563100219
          -2.3735599518 -0.0037444499321 -0.31686800718 -2.1682898998 -0.037599701434 -0.23476999998
          -3.595760107 0.14106500149 0.5 -3.6287798882 0.30937200785 0.33959800005
          -3.5643999577 0.41731798649 0.5 -3.7529900074 0.32859098911 0.5
          2.0320599079 -0.29999300838 -0.11793000251 1.9453500509 -0.087545797229 -0.2573390007
          2.2014501095 -0.17346900702 -0.18166600168 2.0873699188 -0.15330499411 0.011435699649
          4.0863099098 -0.5 0.17567700148 4.2311301231 -0.28602001071 0.30712598562
          4.039850235 -0.20272299647 0.21478900313 4.1160001755 -0.25597798824 -0.023964699358
          -3.9185600281 -0.21505500376 -0.20922599733 -4.022600174 -0.31765198708 -0.031538199633
          -3.7506599426 -0.28654700518 -0.026961300522 -3.8106400967 -0.5 -0.18066500127
          2.8429698944 0.28180000186 -0.27394500375 2.6394400597 0.5 -0.0548616983
          2.9282898903 0.5 -0.19310599566 2.8604700565 0.28147599101 -0.024887500331
          0.7291790247 -0.29900100827 0.29153800011 0.68295001984 -0.13473699987 0.5
          0.53568398952 -0.32191199064 0.5 0.58512401581 -0.18639500439 0.18318599463
          3.9580099583 -0.5 0.00037011300446 3.8753499985 -0.34310999513 0.22761000693
          4.0863099098 -0.5 0.17567700148 3.8067100048 -0.5 0.09490519762
          3.8753499985 -0.34310999513 0.22761000693 3.9580099583 -0.5 0.00037011300446
          4.0863099098 -0.5 0.17567700148 4.1160001755 -0.25597798824 -0.023964699358
          3.841520071 -0.36154899001 0.5 3.8753499985 -0.34310999513 0.22761000693
          3.9721999168 -0.5 0.36053299904 4.0639600754 -0.30339500308 0.5
          -3.4066801071 0.46902000904 -0.5 -3.3607699871 0.21685799956 -0.5
          -3.6169199944 0.2079769969 -0.5 -3.4697299004 0.28407201171 -0.298379004
          -3.012720108 0.29143700004 0.30083501339 -3.2138299942 0.5 0.12549799681
          -3.0836999416 0.5 0.28708401322 -3.177740097 0.19153399765 0.19352599978
          -3.0080699921 0.29238799214 0.028416100889 -3.2138299942 0.5 0.12549799681
          -3.012720108 0.29143700004 0.30083501339 -3.177740097 0.19153399765 0.19352599978
          -4.7695999146 0.26816898584 -0.5 -4.7847399712 0.018612299114 -0.27819800377
          -4.6261501312 0.17262099683 -0.1935839951 -4.5744199753 0.044033199549 -0.5
          -4.7695999146 0.26816898584 -0.5 -4.8396000862 0.080449603498 -0.5
          -4.7847399712 0.018612299114 -0.27819800377 -4.5744199753 0.044033199549 -0.5
          -3.0080699921 0.29238799214 0.028416100889 -3.3652899265 0.29221200943 0.018539199606
          -3.2138299942 0.5 0.12549799681 -3.177740097 0.19153399765 0.19352599978
          -3.3607699871 0.21685799956 -0.5 -3.6169199944 0.2079769969 -0.5
          -3.4697299004 0.28407201171 -0.298379004 -3.5521500111 0.0046129701659 -0.5
          -4.765540123 0.29459398985 -0.015708299354 -4.936150074 0.5 -0.080450102687
          -5 0.28975299001 0.088944099844 -5 0.30918601155 -0.271468997
          -5 0.1004910022 -0.10199099779 -4.765540123 0.29459398985 -0.015708299354
          -5 0.28975299001 0.088944099844 -5 0.30918601155 -0.271468997
          -1.5302300453 -0.20296399295 0.1751369983 -1.6324599981 -0.5 0.14717400074
          -1.5047199726 -0.5 0.018165400252 -1.728489995 -0.2819840014 0.029070099816
          -1.728489995 -0.2819840014 0.029070099816 -1.6324599981 -0.5 0.14717400074
          -1.5047199726 -0.5 0.018165400252 -1.5899200439 -0.5 -0.14776800573
          -4.765540123 0.29459398985 -0.015708299354 -5 0.1004910022 -0.10199099779
          -5 0.28975299001 0.088944099844 -4.7836899757 -0.0049985698424 -0.0062314402312
          -0.30496299267 0.34233599901 -0.13862299919 -0.47131600976 0.32570299506 -0.023170199245
          -0.47644600272 0.21734400094 -0.22011299431 -0.43139898777 0.5 -0.15948499739
          -1.1828099489 0.5 -0.19919799268 -1.3262499571 0.2814899981 -0.050565201789
          -1.0172100067 0.25485399365 -0.020222399384 -1.1753100157 0.18597100675 -0.21642799675
          -3.776599884 -0.0024208100513 0.27819898725 -3.971339941 0.069716103375 0.5
          -3.7759699821 0.12645199895 0.5 -3.8706200123 -0.17432299256 0.5
          3.4506099224 -0.25270500779 -0.04623780027 3.4346001148 0.010584499687 0.0013051299611
          3.6450901031 -0.17131699622 -0.19211299717 3.6606800556 0.057222399861 0.047008000314
          3.4506099224 -0.25270500779 -0.04623780027 3.4999299049 -0.5 -8.444820196e-06
          3.3585400581 -0.5 -0.16122399271 3.3018300533 -0.5 0.031524900347
          3.4506099224 -0.25270500779 -0.04623780027 3.5628299713 -0.5 -0.19047999382
          3.3585400581 -0.5 -0.16122399271 3.4999299049 -0.5 -8.444820196e-06
          -2.2661499977 -0.26958799362 0.5 -2.3285899162 -0.077071398497 0.5
          -2.3618400097 -0.32881900668 0.3184300065 -2.1809399128 -0.24249899387 0.24300700426
          -2.2661499977 -0.26958799362 0.5 -2.4707000256 -0.30024200678 0.5
          -2.3618400097 -0.32881900668 0.3184300065 -2.3285899162 -0.077071398497 0.5
          2.797960043 -0.29616799951 0.32714900374 2.7103700638 -0.17533199489 0.17696000636
          2.9692099094 -0.18215200305 0.27709600329 2.8023600578 -0.042083900422 0.5
          1.2676099539 0.18327300251 0.17430500686 1.2891700268 0.025188799948 0.31899100542
          1.4897999763 0.29271999002 0.26752799749 1.4909499884 0.035039100796 0.2443370074
          3.4506099224 -0.25270500779 -0.04623780027 3.4346001148 0.010584499687 0.0013051299611
          3.4722599983 -0.22174499929 0.20733100176 3.1743900776 -0.18350000679 0.1536089927
          4.0863099098 -0.5 0.17567700148 3.8753499985 -0.34310999513 0.22761000693
          3.9721999168 -0.5 0.36053299904 3.8067100048 -0.5 0.09490519762
          3.6032299995 -0.0550327003 0.29886201024 3.4012000561 -0.17302200198 0.5
          3.7090001106 -0.1736509949 0.5 3.678839922 -0.28315201402 0.29635599256
          -2.9412100315 -0.31262499094 -0.011466300115 -2.6965899467 -0.25478899479 0.070601798594
          -2.8699100018 0.034952599555 0.013808799908 -2.8483600616 -0.1823129952 -0.18523199856
          4.1160001755 -0.25597798824 -0.023964699358 4.1566100121 -0.01251959987 -0.28246301413
          4.3278198242 -0.19421100616 -0.1541839987 4.0779399872 0.0020779399201 -0.0058176601306
          2.8141000271 0.33296000957 0.21601100266 2.9353599548 0.054025001824 0.25657498837
          2.966039896 0.21264900267 0.13400100172 2.6889400482 0.16072399914 0.18579299748
          0.12759399414 -0.5 -0.23184600472 -0.14947299659 -0.5 -0.13736000657
          0.02034159936 -0.29206499457 -0.27554398775 0.10427799821 -0.31776800752 -0.01549869962
          2.9622399807 -0.48268601298 0.5 2.7243199348 -0.5 0.48583400249
          2.8543798923 -0.5 0.31709998846 2.797960043 -0.29616799951 0.32714900374
          2.9622399807 -0.48268601298 0.5 2.8543798923 -0.5 0.31709998846
          3.0828099251 -0.5 0.29510200024 2.797960043 -0.29616799951 0.32714900374
          -3.6415400505 0.18903900683 -0.16241000593 -3.8989500999 0.24744200706 -0.23554000258
          -3.8818199635 0.0094203203917 -0.0044903801754 -3.8034300804 0.010254199617 -0.24826699495
          -3.8989500999 0.24744200706 -0.23554000258 -3.8034300804 0.010254199617 -0.24826699495
          -3.8300800323 0.22917799652 -0.5 -4.0041999817 0.10439799726 -0.5
          -3.8034300804 0.010254199617 -0.24826699495 -3.7646200657 -0.015583699569 -0.5
          -3.8300800323 0.22917799652 -0.5 -4.0041999817 0.10439799726 -0.5
          -2.0428700447 0.13684900105 -0.5 -2.1682898998 -0.037599701434 -0.23476999998
          -2.0386500359 -0.018439799547 -0.5 -2.1926898956 0.17790399492 -0.5
          -1.730610013 -0.00066968100145 -0.0049977498129 -1.670410037 -0.23073199391 -0.21768200397
          -1.728489995 -0.2819840014 0.029070099816 -1.5096600056 -0.035843800753 0.024828599766
          -1.730610013 -0.00066968100145 -0.0049977498129 -1.728489995 -0.2819840014 0.029070099816
          -1.5302300453 -0.20296399295 0.1751369983 -1.5096600056 -0.035843800753 0.024828599766
          -4.411260128 -0.00020594299713 -0.0010824199999 -4.4539299011 -0.1930360049 -0.27674099803
          -4.439789772 -0.27735000849 -0.054897699505 -4.2221798897 -0.17677399516 -0.20671699941
          3.730230093 0.5 0.19785399735 3.730809927 0.29602000117 0.3136009872
          3.9115200043 0.5 0.15832599998 3.8664000034 0.19483299553 0.16909499466
          -3.8034300804 0.010254199617 -0.24826699495 -3.9185600281 -0.21505500376 -0.20922599733
          -3.7506599426 -0.28654700518 -0.026961300522 -3.6039199829 -0.1486119926 -0.1880979985
          4.5424098969 -0.083453699946 0.5 4.6142997742 -0.33187198639 0.5
          4.4824900627 -0.2778429985 0.28902798891 4.4160299301 -0.33252999187 0.5
          -3.9890100956 0.24387900531 0.0062287501059 -3.7612600327 0.27116200328 0.015408799984
          -3.8989500999 0.24744200706 -0.23554000258 -3.8818199635 0.0094203203917 -0.0044903801754
          -2.4805099964 -0.5 -0.46317800879 -2.6997199059 -0.29153099656 -0.5
          -2.6132099628 -0.29757499695 -0.26779401302 -2.704449892 -0.5 -0.44117501378
          0.37961798906 -0.27483201027 0.3045360148 0.15296399593 -0.18104599416 0.18370200694
          0.23762199283 -0.5 0.14814600348 0.36774501204 -0.27583301067 0.050296399742
          -2.4325098991 0.0032291798852 0.31787699461 -2.6128799915 0.13250499964 0.27421799302
          -2.5157299042 -0.098369702697 0.5 -2.7145900726 -0.082542397082 0.279302001
          -2.4500799179 -0.18146699667 0.1914049983 -2.4325098991 0.0032291798852 0.31787699461
          -2.6128799915 0.13250499964 0.27421799302 -2.6441700459 0.0031107501127 0.0051095401868
          2.3607499599 -0.5 -0.025692699477 2.4389500618 -0.2577829957 -0.080456696451
          2.2314100266 -0.30056801438 0.0065283500589 2.3567500114 -0.5 -0.25275498629
          2.1369900703 -0.5 -0.054951798171 2.3567500114 -0.5 -0.25275498629
          2.3607499599 -0.5 -0.025692699477 2.2314100266 -0.30056801438 0.0065283500589
          0.37961798906 -0.27483201027 0.3045360148 0.47176000476 -0.12052799761 0.5
          0.58512401581 -0.18639500439 0.18318599463 0.53568398952 -0.32191199064 0.5
          -3.406719923 -0.26567399502 -0.27803298831 -3.2809400558 -0.26598799229 -0.5
          -3.1629300117 -0.5 -0.34590101242 -3.1692500114 -0.17956000566 -0.18042400479
          -2.5157299042 -0.098369702697 0.5 -2.7145900726 -0.082542397082 0.279302001
          -2.6140599251 -0.2892279923 0.31681698561 -2.4325098991 0.0032291798852 0.31787699461
          -1.2095999718 -0.31749498844 -0.5 -1.3610700369 -0.5 -0.49804601073
          -1.2733399868 -0.5 -0.29207199812 -1.1371999979 -0.5 -0.43496501446
          -2.7145900726 -0.082542397082 0.279302001 -3.0034298897 -0.12146800011 0.11256500334
          -2.9220399857 -0.26491099596 0.30408999324 -2.6965899467 -0.25478899479 0.070601798594
          -4.5893697739 -0.027997599915 -0.31035900116 -4.4539299011 -0.1930360049 -0.27674099803
          -4.6226601601 -0.13244700432 -0.5 -4.6675601006 -0.16073800623 -0.17753699422
          -1.0093300343 -0.26582100987 -0.5 -1.1371999979 -0.5 -0.43496501446
          -1.1352299452 -0.30921301246 -0.27610599995 -0.86342602968 -0.5 -0.2539960146
          -2.9220399857 -0.26491099596 0.30408999324 -3.0562400818 -0.17835299671 0.5
          -2.8798100948 0.024562800303 0.5 -2.7625899315 -0.27350199223 0.5
          -3.0562400818 -0.17835299671 0.5 -2.9936599731 -0.45610100031 0.5
          -2.7625899315 -0.27350199223 0.5 -2.9220399857 -0.26491099596 0.30408999324
          -3.1326100826 -0.026751099154 0.30142500997 -3.349050045 -0.092123396695 0.5
          -3.0562400818 -0.17835299671 0.5 -3.2471899986 -0.22948899865 0.5
          1.8255000114 -0.5 0.10807599872 1.7191100121 -0.2926889956 0.013918399811
          1.8100399971 -0.5 -0.073667302728 1.9245300293 -0.27816799283 0.073713801801
          -3.1326100826 -0.026751099154 0.30142500997 -3.349050045 -0.092123396695 0.5
          -3.2471899986 -0.22948899865 0.5 -3.2899799347 -0.19551900029 0.21153800189
          -2.7625899315 -0.27350199223 0.5 -2.9936599731 -0.45610100031 0.5
          -2.7791500092 -0.49004599452 0.5 -2.9220399857 -0.26491099596 0.30408999324
          -2.7625899315 -0.27350199223 0.5 -2.7791500092 -0.49004599452 0.5
          -2.7104799747 -0.5 0.29420700669 -2.9220399857 -0.26491099596 0.30408999324
          3.6057898998 0.18472599983 -0.5 3.5376200676 0.42240199447 -0.5
          3.7777900696 0.29186201096 -0.5 3.6711499691 0.31469801068 -0.29238000512
          -4.3864398003 0.25989100337 -0.089046299458 -4.2024998665 0.29241999984 0.027058599517
          -4.4165802002 0.22745400667 0.23878499866 -4.5506501198 0.30194398761 0.066922001541
          -0.86464500427 0.18405400217 0.1796399951 -1.1475800276 0.23044300079 0.22876000404
          -0.96254199743 0.19088900089 0.5 -0.93832302094 -0.045258000493 0.24930199981
          3.3330900669 0.5 0.31517699361 3.1571199894 0.5 0.16706800461
          3.0071001053 0.30889099836 0.30772000551 3.353579998 0.25871399045 0.31244799495
          3.3330900669 0.5 0.31517699361 3.0071001053 0.30889099836 0.30772000551
          3.1938300133 0.27075499296 0.5 3.353579998 0.25871399045 0.31244799495
          -4.2024998665 0.29241999984 0.027058599517 -4.2751197815 0.5 0.02419850044
          -4.261590004 0.5 0.28367200494 -4.4328398705 0.5 0.16251300275
          3.803839922 0.5 0.0072177099064 3.6093900204 0.31306898594 -0.027008600533
          3.730230093 0.5 0.19785399735 3.867939949 0.29484701157 -0.023631099612
          0.21745100617 -0.25824698806 0.5 0.25244501233 -0.012676700018 0.29410201311
          0.15296399593 -0.18104599416 0.18370200694 0.37961798906 -0.27483201027 0.3045360148
          3.6093900204 0.31306898594 -0.027008600533 3.803839922 0.5 0.0072177099064
          3.6711499691 0.31469801068 -0.29238000512 3.867939949 0.29484701157 -0.023631099612
          3.9115200043 0.5 0.15832599998 3.803839922 0.5 0.0072177099064
          3.867939949 0.29484701157 -0.023631099612 4.0127902031 0.5 -0.00039253599243
          -2.461810112 -0.5 -0.23160800338 -2.4805099964 -0.5 -0.46317800879
          -2.6132099628 -0.29757499695 -0.26779401302 -2.704449892 -0.5 -0.44117501378
          2.0716900826 -0.38688901067 0.5 1.9660799503 -0.216049999 0.5
          2.0565500259 -0.31903299689 0.2972239852 2.1368100643 -0.22857700288 0.5
          1.5954600573 -0.5 -0.26120200753 1.8699899912 -0.30787700415 -0.26772201061
          1.8518699408 -0.5 -0.39846301079 1.8100399971 -0.5 -0.073667302728
          4.3579602242 -0.5 -0.20988300443 4.4999699593 -0.30107301474 -0.267922014
          4.5304999352 -0.5 -0.15178099275 4.5181698799 -0.25569599867 -0.00080205698032
          4.039850235 -0.20272299647 0.21478900313 4.0886101723 0.063145399094 0.2613709867
          3.993170023 -0.055373799056 0.5 3.8265800476 -0.00065459497273 0.32086899877
          1.2285900116 0.5 1.5277299099e-05 1.2676099539 0.18327300251 0.17430500686
          1.0667099953 0.30986699462 -0.00099666800816 1.142539978 0.300906986 0.29215401411
          -2.8245999813 -0.5 -0.29598200321 -2.9157800674 -0.27548700571 -0.5
          -2.8483600616 -0.1823129952 -0.18523199856 -3.0114998817 -0.30267500877 -0.29305499792
          1.0327399969 -0.5 -0.23253199458 0.77619498968 -0.5 -0.05961849913
          0.74148601294 -0.5 -0.35863500834 0.82210099697 -0.27426099777 -0.29057401419
          0.93736201525 -0.5 -0.41163700819 1.0327399969 -0.5 -0.23253199458
          0.74148601294 -0.5 -0.35863500834 0.82210099697 -0.27426099777 -0.29057401419
          0.82210099697 -0.27426099777 -0.29057401419 0.93736201525 -0.5 -0.41163700819
          0.69139498472 -0.21342000365 -0.5 0.74148601294 -0.5 -0.35863500834
          0.82210099697 -0.27426099777 -0.29057401419 0.60203802586 -0.41157200933 -0.5
          0.74148601294 -0.5 -0.35863500834 0.69139498472 -0.21342000365 -0.5
          0.52369099855 -0.25701698661 -0.29001700878 0.60203802586 -0.41157200933 -0.5
          0.82210099697 -0.27426099777 -0.29057401419 0.69139498472 -0.21342000365 -0.5
          0.52369099855 -0.25701698661 -0.29001700878 0.60203802586 -0.41157200933 -0.5
          0.74148601294 -0.5 -0.35863500834 0.82210099697 -0.27426099777 -0.29057401419
          0.82210099697 -0.27426099777 -0.29057401419 0.62789398432 -0.5 -0.19392700493
          0.74148601294 -0.5 -0.35863500834 0.52369099855 -0.25701698661 -0.29001700878
          5 -0.40549901128 0.09935849905 5 -0.14510799944 -0.050927400589
          5 -0.20979200304 0.28537601233 4.814139843 -0.29069000483 0.014058699831
          -3.5640099049 0.29994499683 -0.013255200349 -3.6415400505 0.18903900683 -0.16241000593
          -3.7612600327 0.27116200328 0.015408799984 -3.5974299908 0.015700999647 0.0042460002005
          0.77619498968 -0.5 -0.05961849913 0.62789398432 -0.5 -0.19392700493
          0.74148601294 -0.5 -0.35863500834 0.82210099697 -0.27426099777 -0.29057401419
          1.1665500402 -0.30232200027 0.032807700336 0.96319800615 -0.25574100018 -0.086030602455
          1.0327399969 -0.5 -0.23253199458 1.0735499859 -0.2803800106 -0.2859480083
          3.1624600887 -0.015569499694 -0.02179059945 2.9765999317 0.15742999315 -0.14321500063
          2.966039896 0.21264900267 0.13400100172 2.9201900959 0.0039753098972 -0.016150400043
          2.8604700565 0.28147599101 -0.024887500331 2.9765999317 0.15742999315 -0.14321500063
          2.966039896 0.21264900267 0.13400100172 3.095690012 0.30450299382 0.0079884901643
          4.039850235 -0.20272299647 0.21478900313 4.2926101685 0.022265100852 0.30176800489
          4.2311301231 -0.28602001071 0.30712598562 4.1275501251 -0.15113399923 0.5
          2.9282898903 0.5 -0.19310599566 3.095690012 0.30450299382 0.0079884901643
          3.1241300106 0.5 -0.23149099946 3.0563700199 0.30440598726 -0.29042899609
          2.9282898903 0.5 -0.19310599566 2.8604700565 0.28147599101 -0.024887500331
          3.095690012 0.30450299382 0.0079884901643 3.0563700199 0.30440598726 -0.29042899609
          -3.7646200657 -0.015583699569 -0.5 -3.7030899525 -0.27636900544 -0.5
          -3.7279200554 -0.31415998936 -0.27874299884 -3.6039199829 -0.1486119926 -0.1880979985
          2.6293599606 0.5 0.17279799283 2.6206200123 0.32416799664 0.30228099227
          2.6540100574 0.30316799879 0.029222900048 2.4116399288 0.33501198888 0.26824301481
          -0.63264602423 -0.32936599851 0.064718000591 -0.6270070076 -0.18018999696 -0.18880400062
          -0.78096401691 -0.28885498643 -0.091540999711 -0.59884798527 -0.5 -0.081100203097
          -4.6675601006 -0.16073800623 -0.17753699422 -4.7982001305 -0.27365100384 -0.020341299474
          -4.5685501099 -0.12892700732 -0.0029087499715 -4.439789772 -0.27735000849 -0.054897699505
          -2.4091000557 0.010666499846 0.010404500179 -2.4208400249 -0.17098300159 -0.17608100176
          -2.6364200115 -0.0513737984 -0.25086298585 -2.6087799072 -0.18399499357 -0.098889403045
          3.8543400764 -0.043197199702 -0.061682298779 3.6606800556 0.057222399861 0.047008000314
          3.8664000034 0.19483299553 0.16909499466 3.9352300167 -0.034624699503 0.14412599802
          4.1160001755 -0.25597798824 -0.023964699358 3.8543400764 -0.043197199702 -0.061682298779
          4.0779399872 0.0020779399201 -0.0058176601306 3.9352300167 -0.034624699503 0.14412599802
          1.0786999464 -0.15874500573 -0.5 1.0735499859 -0.2803800106 -0.2859480083
          0.89200401306 -0.15874500573 -0.5 0.93065899611 -0.030296299607 -0.23989999294
          0.5808069706 -0.057113301009 -0.5 0.52369099855 -0.25701698661 -0.29001700878
          0.69139498472 -0.21342000365 -0.5 0.39225000143 -0.090401999652 -0.5
          2.2014501095 -0.17346900702 -0.18166600168 1.9453500509 -0.087545797229 -0.2573390007
          2.2094399929 -0.21062499285 -0.5 2.1815600395 -0.001020470052 -0.32536798716
          -1.9607599974 -0.22289100289 0.5 -2.2661499977 -0.26958799362 0.5
          -2.0053899288 -0.31090599298 0.32138600945 -2.1403698921 -0.070216402411 0.5
          1.2955499887 -0.5 -0.41003099084 1.0735499859 -0.2803800106 -0.2859480083
          1.1168500185 -0.49917200208 -0.5 1.1912800074 -0.33144798875 -0.5
          1.0735499859 -0.2803800106 -0.2859480083 0.82210099697 -0.27426099777 -0.29057401419
          0.89200401306 -0.15874500573 -0.5 0.93065899611 -0.030296299607 -0.23989999294
          -1.9607599974 -0.22289100289 0.5 -2.2661499977 -0.26958799362 0.5
          -2.1087300777 -0.5 0.46349099278 -2.0053899288 -0.31090599298 0.32138600945
          -1.1246000528 -0.21291700006 0.24169400334 -0.93832302094 -0.045258000493 0.24930199981
          -1.0750999451 -0.011404699646 0.007108009886 -0.94314199686 -0.25431698561 0.040656600147
          -0.94314199686 -0.25431698561 0.040656600147 -1.0750999451 -0.011404699646 0.007108009886
          -1.1246000528 -0.21291700006 0.24169400334 -1.1855100393 -0.25224798918 -0.0140108997
          4.1160001755 -0.25597798824 -0.023964699358 3.9352300167 -0.034624699503 0.14412599802
          4.0779399872 0.0020779399201 -0.0058176601306 4.039850235 -0.20272299647 0.21478900313
          0.33892700076 0.20277099311 0.5 0.083770796657 0.16607399285 0.5
          0.25244501233 -0.012676700018 0.29410201311 0.25142499804 0.20395800471 0.20601199567
          -3.6195299625 0.18837699294 0.1758890003 -3.7612600327 0.27116200328 0.015408799984
          -3.8818199635 0.0094203203917 -0.0044903801754 -3.5974299908 0.015700999647 0.0042460002005
          -3.6195299625 0.18837699294 0.1758890003 -3.7612600327 0.27116200328 0.015408799984
          -3.8861699104 0.22745600343 0.24729199708 -3.8818199635 0.0094203203917 -0.0044903801754
          2.8429698944 0.28180000186 -0.27394500375 2.7815999985 0.20081700385 -0.5
          2.8999099731 0.041673701257 -0.29681798816 3.0176899433 0.33451101184 -0.5
          2.8429698944 0.28180000186 -0.27394500375 2.8296399117 0.5 -0.49776399136
          2.7815999985 0.20081700385 -0.5 3.0176899433 0.33451101184 -0.5
          -3.1326100826 -0.026751099154 0.30142500997 -3.353219986 0.018101999536 -0.0069937198423
          -3.40102005 0.049610700458 0.26974400878 -3.2899799347 -0.19551900029 0.21153800189
          -3.1326100826 -0.026751099154 0.30142500997 -3.349050045 -0.092123396695 0.5
          -3.2899799347 -0.19551900029 0.21153800189 -3.40102005 0.049610700458 0.26974400878
          -3.1714200974 0.28492799401 -0.5 -2.9752700329 0.12661999464 -0.5
          -3.1402900219 0.086144499481 -0.5 -3.0582199097 0.31288200617 -0.29153999686
          -3.1307299137 0.1212079972 0.5 -3.349050045 -0.092123396695 0.5
          -3.0562400818 -0.17835299671 0.5 -3.1326100826 -0.026751099154 0.30142500997
          4.2713398933 0.33074501157 0.5 4.2926101685 0.022265100852 0.30176800489
          4.390999794 0.12619799376 0.5 4.3127498627 0.19265699387 0.16710400581
          4.6661100388 -0.5 -0.39997300506 4.8028302193 -0.29806599021 -0.33157899976
          4.8187298775 -0.5 -0.29728299379 4.7140798569 -0.5 -0.1463650018
          0.96319800615 -0.25574100018 -0.086030602455 1.0404800177 -0.5 0.084503702819
          0.77619498968 -0.5 -0.05961849913 0.78195297718 -0.29943698645 0.031285099685
          1.6074999571 0.030789300799 -0.26509699225 1.7917699814 -0.17960299551 -0.5
          1.9453500509 -0.087545797229 -0.2573390007 1.785670042 0.036040998995 -0.5
          4.737279892 -0.20036800206 -0.5 4.7696099281 -0.016697799787 -0.29300200939
          5 -0.058660898358 -0.40873599052 4.8028302193 -0.29806599021 -0.33157899976
          1.4914300442 0.0569607988 -0.04182960093 1.4673299789 -0.16130299866 -0.30513200164
          1.6971999407 -0.18535399437 -0.17042499781 1.6074999571 0.030789300799 -0.26509699225
          4.8058700562 0.17079499364 -0.0053127701394 4.8432202339 0.33124399185 0.15127900243
          5 0.29265201092 0.032442100346 5 0.029062800109 0.15694400668
          -3.4390599728 0.16396200657 -0.12648099661 -3.387419939 -0.020452000201 -0.26496699452
          -3.2168300152 0.015511999838 -0.16400499642 -3.2586500645 0.20448499918 -0.21992500126
          3.3688399792 0.28460401297 0.022468499839 3.6093900204 0.31306898594 -0.027008600533
          3.4346001148 0.010584499687 0.0013051299611 3.5617899895 0.20520099998 0.20095099509
          3.3688399792 0.28460401297 0.022468499839 3.4734098911 0.21108800173 -0.2205349952
          3.4346001148 0.010584499687 0.0013051299611 3.6093900204 0.31306898594 -0.027008600533
          3.4734098911 0.21108800173 -0.2205349952 3.5255100727 0.5 -0.16535499692
          3.6093900204 0.31306898594 -0.027008600533 3.3688399792 0.28460401297 0.022468499839
          -2.1682898998 -0.037599701434 -0.23476999998 -2.4208400249 -0.17098300159 -0.17608100176
          -2.4091000557 0.010666499846 0.010404500179 -2.187210083 -0.061865199357 0.039609499276
          3.6093900204 0.31306898594 -0.027008600533 3.5255100727 0.5 -0.16535499692
          3.803839922 0.5 0.0072177099064 3.541369915 0.5 0.1197900027
          3.803839922 0.5 0.0072177099064 3.541369915 0.5 0.1197900027
          3.730230093 0.5 0.19785399735 3.6093900204 0.31306898594 -0.027008600533
          3.6093900204 0.31306898594 -0.027008600533 3.730809927 0.29602000117 0.3136009872
          3.730230093 0.5 0.19785399735 3.8664000034 0.19483299553 0.16909499466
          -2.3761999607 0.32358598709 -0.5 -2.5055100918 0.5 -0.47431001067
          -2.4949100018 0.29038199782 -0.30940899253 -2.6168899536 0.31174701452 -0.5
          -0.46267700195 -0.020818000659 -0.27643701434 -0.74285399914 0.13776800036 -0.12904399633
          -0.47644600272 0.21734400094 -0.22011299431 -0.62403798103 0.035430200398 0.037675399333
          -0.70620900393 0.037291798741 0.28922000527 -0.86464500427 0.18405400217 0.1796399951
          -0.74051898718 -0.13983599842 0.1276730001 -0.62403798103 0.035430200398 0.037675399333
          1.9567300081 0.0023706499487 0.0081458101049 1.9551000595 0.040498699993 0.28340399265
          2.2021598816 0.01178739965 -0.018270699307 2.1778399944 -0.17710599303 0.19188399613
          1.9567300081 0.0023706499487 0.0081458101049 1.9551000595 0.040498699993 0.28340399265
          2.1986699104 0.16770100594 0.18445199728 2.2021598816 0.01178739965 -0.018270699307
          -4.0238199234 -0.033451199532 0.28527000546 -4.1556100845 0.12476799637 0.5
          -3.971339941 0.069716103375 0.5 -4.0954899788 -0.1243320033 0.5
          -0.10501199961 -0.31161299348 0.5 0.03605210036 -0.1630679965 0.5
          -0.012120299973 -0.32062399387 0.28174200654 0.21745100617 -0.25824698806 0.5
          2.2021598816 0.01178739965 -0.018270699307 1.9551000595 0.040498699993 0.28340399265
          2.1986699104 0.16770100594 0.18445199728 2.1778399944 -0.17710599303 0.19188399613
          2.2021598816 0.01178739965 -0.018270699307 2.4395799637 -0.026134699583 0.038382198662
          2.2014501095 -0.17346900702 -0.18166600168 2.4389500618 -0.2577829957 -0.080456696451
          2.2021598816 0.01178739965 -0.018270699307 2.4395799637 -0.026134699583 0.038382198662
          2.4390499592 -0.057027101517 -0.2462310046 2.2014501095 -0.17346900702 -0.18166600168
          3.5255100727 0.5 -0.16535499692 3.3973500729 0.5 -0.34653198719
          3.6711499691 0.31469801068 -0.29238000512 3.5376200676 0.42240199447 -0.5
          3.5255100727 0.5 -0.16535499692 3.3973500729 0.5 -0.34653198719
          3.4734098911 0.21108800173 -0.2205349952 3.6711499691 0.31469801068 -0.29238000512
          -4.7461600304 -0.5 -0.23019599915 -5 -0.33370301127 -0.29875099659
          -4.7598800659 -0.5 -0.39154198766 -4.7819399834 -0.28898400068 -0.32071700692
          -4.7847399712 0.018612299114 -0.27819800377 -4.7819399834 -0.28898400068 -0.32071700692
          -4.8039498329 -0.1570609957 -0.5 -5 -0.13075700402 -0.36378800869
          4.7783799171 -0.058915100992 0.015639599413 5 0.029062800109 0.15694400668
          5 -0.14510799944 -0.050927400589 5 -0.20979200304 0.28537601233
          3.4532198906 -0.27570098639 -0.28086999059 3.4302000999 -0.042014900595 -0.25968700647
          3.2362499237 -0.1912920028 -0.17273800075 3.190030098 -0.22524799407 -0.5
          3.4532198906 -0.27570098639 -0.28086999059 3.3585400581 -0.5 -0.16122399271
          3.2248399258 -0.5 -0.3111949861 3.2362499237 -0.1912920028 -0.17273800075
          3.4302000999 -0.042014900595 -0.25968700647 3.4506099224 -0.25270500779 -0.04623780027
          3.4532198906 -0.27570098639 -0.28086999059 3.2362499237 -0.1912920028 -0.17273800075
          4.5015702248 0.045086801052 0.27461698651 4.7783799171 -0.058915100992 0.015639599413
          4.5567698479 0.040265500546 -0.029345599934 4.6710700989 -0.19623799622 0.19057400525
          3.4302000999 -0.042014900595 -0.25968700647 3.6450901031 -0.17131699622 -0.19211299717
          3.4532198906 -0.27570098639 -0.28086999059 3.4506099224 -0.25270500779 -0.04623780027
          -2.6132099628 -0.29757499695 -0.26779401302 -2.4834799767 -0.27802801132 -0.5
          -2.5989000797 -0.16783699393 -0.5 -2.6997199059 -0.29153099656 -0.5
          4.5181698799 -0.25569599867 -0.00080205698032 4.5567698479 0.040265500546 -0.029345599934
          4.7783799171 -0.058915100992 0.015639599413 4.6710700989 -0.19623799622 0.19057400525
          3.6057898998 0.18472599983 -0.5 3.5376200676 0.42240199447 -0.5
          3.6711499691 0.31469801068 -0.29238000512 3.4734098911 0.21108800173 -0.2205349952
          0.16596199572 0.5 0.45811799169 0.057354498655 0.2768329978 0.30196899176
          0.33892700076 0.20277099311 0.5 0.25995999575 0.5 0.30666300654
          -4.7819399834 -0.28898400068 -0.32071700692 -4.7847399712 0.018612299114 -0.27819800377
          -5 -0.16616299748 -0.067754097283 -5 -0.13075700402 -0.36378800869
          -2.0332100391 0.28143399954 0.34608799219 -2.2189500332 0.32305899262 0.5
          -2.2191998959 0.31082698703 0.26025301218 -2.0084600449 0.5 0.30924999714
          1.7197300196 -0.0059337001294 -0.015229499899 1.6828099489 -0.15067499876 0.17043499649
          1.71875 0.012455300428 0.32105600834 1.8789199591 -0.10240700096 0.16247299314
          -3.1584899426 -0.5 -0.16631600261 -3.1692500114 -0.17956000566 -0.18042400479
          -3.4054200649 -0.24873800576 -0.029902800918 -3.406719923 -0.26567399502 -0.27803298831
          -3.406719923 -0.26567399502 -0.27803298831 -3.4054200649 -0.24873800576 -0.029902800918
          -3.3001599312 -0.5 -0.014418800361 -3.3308799267 -0.5 -0.28216999769
          1.3097499609 -0.32079198956 -0.30054301023 1.2388900518 -0.17473700643 -0.16655999422
          1.5000799894 -0.33221799135 -0.20392900705 1.4679900408 -0.23194299638 -0.032342601568
          -3.406719923 -0.26567399502 -0.27803298831 -3.4891300201 -0.48809701204 -0.5
          -3.6053900719 -0.5 -0.22260099649 -3.3308799267 -0.5 -0.28216999769
          0.96319800615 -0.25574100018 -0.086030602455 0.76386100054 -0.10622999817 0.089437901974
          0.70115399361 -0.13068500161 -0.12672199309 0.80673497915 0.05526150018 -0.040332399309
          0.96319800615 -0.25574100018 -0.086030602455 0.78195297718 -0.29943698645 0.031285099685
          0.70115399361 -0.13068500161 -0.12672199309 0.76386100054 -0.10622999817 0.089437901974
          -3.5095100403 -0.29471600056 -0.5 -3.4891300201 -0.48809701204 -0.5
          -3.6053900719 -0.5 -0.22260099649 -3.406719923 -0.26567399502 -0.27803298831
          -1.5251499414 -0.076651901007 -0.31482899189 -1.670410037 -0.23073199391 -0.21768200397
          -1.730610013 -0.00066968100145 -0.0049977498129 -1.5096600056 -0.035843800753 0.024828599766
          -3.7156999111 0.29170098901 -0.33228498697 -3.6554999352 0.5 -0.12951600552
          -3.6415400505 0.18903900683 -0.16241000593 -3.822799921 0.5 -0.16184200346
          0.15296399593 -0.18104599416 0.18370200694 -0.014323200099 -0.10396199673 0.093425601721
          0.2199189961 -0.15206000209 -0.010414100252 0.12687399983 0.024941600859 0.019101899117
          -1.6999100447 -0.016917800531 0.25771600008 -1.9655499458 0.017111200839 0.015656199306
          -1.9215400219 -0.19377499819 0.17684599757 -1.730610013 -0.00066968100145 -0.0049977498129
          -3.6472799778 0.44761100411 -0.5 -3.7156999111 0.29170098901 -0.33228498697
          -3.6169199944 0.2079769969 -0.5 -3.8300800323 0.22917799652 -0.5
          4.5822200775 0.29958099127 -0.0073895901442 4.7387499809 0.5 0.12298899889
          4.8432202339 0.33124399185 0.15127900243 4.7025499344 0.19734199345 0.20103999972
          1.5849699974 -0.077601596713 0.5 1.4909499884 0.035039100796 0.2443370074
          1.6828099489 -0.15067499876 0.17043499649 1.71875 0.012455300428 0.32105600834
          2.4503700733 -0.5 0.32925000787 2.2669200897 -0.32125800848 0.30331799388
          2.3215301037 -0.5 0.19653899968 2.4458899498 -0.25059598684 0.23923400044
          1.7617299557 0.19749200344 -0.18400299549 1.6601899862 0.29914501309 -0.0094896201044
          1.9183299541 0.30307900906 -0.11740200222 1.9609899521 0.27691298723 0.076514601707
          -2.1895999908 0.28031998873 -0.27681100368 -2.3761999607 0.32358598709 -0.5
          -2.1567900181 0.5 -0.46172600985 -2.4157299995 0.5 -0.27320700884
          3.18708992 -0.32281601429 -0.009787529707 2.9524600506 -0.22408300638 -0.21185599267
          2.94404006 -0.24824899435 0.048307999969 3.0969901085 -0.5 -0.1024639979
          0.41966900229 0.5 0.38582900167 0.16596199572 0.5 0.45811799169
          0.33892700076 0.20277099311 0.5 0.25995999575 0.5 0.30666300654
          -4.1503901482 0.15257999301 -0.18268600106 -4.2864198685 0.30046600103 -0.30744600296
          -4.4012899399 0.03873860091 -0.27101901174 -4.1763601303 0.12014900148 -0.5
          -2.9389500618 -0.039363101125 -0.5 -2.8483600616 -0.1823129952 -0.18523199856
          -3.0681700706 -0.022411899641 -0.31216698885 -2.8274400234 0.051215600222 -0.3225030005
          -4.513229847 -0.036582600325 0.5 -4.7226400375 0.0055706598796 0.5
          -4.7207899094 -0.18141900003 0.5 -4.605700016 -0.14155100286 0.34099599719
          0.14069800079 0.16885900497 -0.17604699731 -0.021123599261 0.2901929915 -0.037268299609
          0.075165897608 0.5 -0.16578200459 0.20313000679 0.30061998963 0.0047877700999
          1.4891799688 -0.27188199759 0.26980000734 1.7191100121 -0.2926889956 0.013918399811
          1.3733700514 -0.33255699277 0.11544699967 1.6352499723 -0.5 0.19289499521
          -0.028405899182 0.038570299745 -0.28863999248 -0.12994900346 0.14103500545 -0.5
          -0.020521700382 0.27518200874 -0.3097819984 -0.18946300447 0.17974199355 -0.1773750037
          -0.29486501217 0.23727999628 0.084538802505 -0.10846299678 0.5 0.18573200703
          -0.28813400865 0.5 -0.011587300338 -0.021123599261 0.2901929915 -0.037268299609
          -0.021123599261 0.2901929915 -0.037268299609 -0.10846299678 0.5 0.18573200703
          -0.28813400865 0.5 -0.011587300338 -0.12392300367 0.5 -0.12977199256
          -0.021123599261 0.2901929915 -0.037268299609 -0.10846299678 0.5 0.18573200703
          -0.12392300367 0.5 -0.12977199256 0.067414298654 0.5 0.05388860032
          0.5808069706 -0.057113301009 -0.5 0.3679780066 0.042948998511 -0.26218301058
          0.52369099855 -0.25701698661 -0.29001700878 0.39225000143 -0.090401999652 -0.5
          4.296959877 -0.5 0.12259899825 4.2311301231 -0.28602001071 0.30712598562
          4.1665101051 -0.5 0.35283499956 4.0863099098 -0.5 0.17567700148
          0.71499300003 0.033225100487 -0.28708100319 0.58461797237 0.18660899997 -0.17640599608
          0.48660299182 -0.097960598767 -0.14581799507 0.3679780066 0.042948998511 -0.26218301058
          -0.66166800261 -0.5 0.21156099439 -0.63264602423 -0.32936599851 0.064718000591
          -0.3753170073 -0.5 0.14234599471 -0.48325100541 -0.5 0.32274898887
          2.3120000362 -0.058240499347 -0.5 2.1815600395 -0.001020470052 -0.32536798716
          2.4390499592 -0.057027101517 -0.2462310046 2.2014501095 -0.17346900702 -0.18166600168
          -0.92764699459 0.27740699053 -0.26456698775 -1.0172100067 0.25485399365 -0.020222399384
          -0.74285399914 0.13776800036 -0.12904399633 -0.96304500103 0.042934101075 -0.20367699862
          0.2923809886 -0.092951200902 0.5 0.15341800451 0.023780800402 0.5
          0.03605210036 -0.1630679965 0.5 0.25244501233 -0.012676700018 0.29410201311
          0.25244501233 -0.012676700018 0.29410201311 0.15341800451 0.023780800402 0.5
          0.03605210036 -0.1630679965 0.5 0.028599999845 -0.025005400181 0.30730199814
          2.1815600395 -0.001020470052 -0.32536798716 1.9453500509 -0.087545797229 -0.2573390007
          2.042320013 -0.28687000275 -0.5 2.040199995 0.016450500116 -0.5
          0.25244501233 -0.012676700018 0.29410201311 0.028599999845 -0.025005400181 0.30730199814
          0.03605210036 -0.1630679965 0.5 0.15296399593 -0.18104599416 0.18370200694
          0.21745100617 -0.25824698806 0.5 0.2923809886 -0.092951200902 0.5
          0.03605210036 -0.1630679965 0.5 0.25244501233 -0.012676700018 0.29410201311
          0.33892700076 0.20277099311 0.5 0.25244501233 -0.012676700018 0.29410201311
          0.46630200744 0.046083901078 0.25881299376 0.25142499804 0.20395800471 0.20601199567
          4.7696099281 -0.016697799787 -0.29300200939 5 -0.025442499667 -0.21136300266
          4.8905501366 0.13403299451 -0.5 5 -0.058660898358 -0.40873599052
          4.7696099281 -0.016697799787 -0.29300200939 4.8905501366 0.13403299451 -0.5
          4.737279892 -0.20036800206 -0.5 5 -0.058660898358 -0.40873599052
          3.6361598969 -0.5 0.14722600579 3.424779892 -0.5 0.16588500142
          3.4999299049 -0.5 -8.444820196e-06 3.6328399181 -0.30484598875 0.056098300964
          4.7696099281 -0.016697799787 -0.29300200939 4.6962199211 -0.21809899807 -0.17522199452
          4.737279892 -0.20036800206 -0.5 4.5256800652 -0.098457798362 -0.5
          4.7696099281 -0.016697799787 -0.29300200939 5 -0.025442499667 -0.21136300266
          5 -0.058660898358 -0.40873599052 5 -0.29155600071 -0.27424201369
          -3.5974299908 0.015700999647 0.0042460002005 -3.776599884 -0.0024208100513 0.27819898725
          -3.6202099323 -0.16945900023 0.16224400699 -3.8818199635 0.0094203203917 -0.0044903801754
          -3.8818199635 0.0094203203917 -0.0044903801754 -3.7506599426 -0.28654700518 -0.026961300522
          -3.6202099323 -0.16945900023 0.16224400699 -3.5974299908 0.015700999647 0.0042460002005
          -3.6415400505 0.18903900683 -0.16241000593 -3.8034300804 0.010254199617 -0.24826699495
          -3.8818199635 0.0094203203917 -0.0044903801754 -3.5974299908 0.015700999647 0.0042460002005
          -3.5974299908 0.015700999647 0.0042460002005 -3.6039199829 -0.1486119926 -0.1880979985
          -3.353219986 0.018101999536 -0.0069937198423 -3.387419939 -0.020452000201 -0.26496699452
          -1.3363499641 0.5 0.056991901249 -1.5486299992 0.27752000093 0.017110800371
          -1.3727099895 0.30601900816 0.28291600943 -1.3262499571 0.2814899981 -0.050565201789
          -3.8883500099 -0.22696000338 0.22436200082 -4.0238199234 -0.033451199532 0.28527000546
          -3.776599884 -0.0024208100513 0.27819898725 -3.8706200123 -0.17432299256 0.5
          -4.0238199234 -0.033451199532 0.28527000546 -3.971339941 0.069716103375 0.5
          -3.776599884 -0.0024208100513 0.27819898725 -3.8706200123 -0.17432299256 0.5
          -4.0238199234 -0.033451199532 0.28527000546 -4.0954899788 -0.1243320033 0.5
          -3.971339941 0.069716103375 0.5 -3.8706200123 -0.17432299256 0.5
          3.7514400482 -0.26456600428 -0.5 3.7846400738 -0.3112359941 -0.2879639864
          3.92689991 -0.25916099548 -0.5 3.8477098942 -0.5 -0.38085699081
          -1.4028300047 -0.15640300512 -0.13328300416 -1.3964400291 -0.3062709868 0.030771600083
          -1.3521399498 -0.29692700505 -0.29181501269 -1.3853499889 -0.5 -0.1261779964
          -1.1855100393 -0.25224798918 -0.0140108997 -1.4028300047 -0.15640300512 -0.13328300416
          -1.3521399498 -0.29692700505 -0.29181501269 -1.1352299452 -0.30921301246 -0.27610599995
          2.2679901123 0.5 -0.42606198788 2.4748399258 0.5 -0.20795799792
          2.4966099262 0.5 -0.43169501424 2.4688100815 0.27537798882 -0.28756999969
          2.4966099262 0.5 -0.43169501424 2.4688100815 0.27537798882 -0.28756999969
          2.6973400116 0.5 -0.29229000211 2.6561300755 0.37442401052 -0.5
          2.4748399258 0.5 -0.20795799792 2.6394400597 0.5 -0.0548616983
          2.6973400116 0.5 -0.29229000211 2.4688100815 0.27537798882 -0.28756999969
          -1.0172100067 0.25485399365 -0.020222399384 -1.3262499571 0.2814899981 -0.050565201789
          -1.0912200212 0.5 0.03137230128 -1.1475800276 0.23044300079 0.22876000404
          -1.3262499571 0.2814899981 -0.050565201789 -1.3363499641 0.5 0.056991901249
          -1.0912200212 0.5 0.03137230128 -1.1475800276 0.23044300079 0.22876000404
          2.4966099262 0.5 -0.43169501424 2.4748399258 0.5 -0.20795799792
          2.6973400116 0.5 -0.29229000211 2.4688100815 0.27537798882 -0.28756999969
          -4.8039498329 -0.1570609957 -0.5 -4.623360157 -0.31539899111 -0.5
          -4.7819399834 -0.28898400068 -0.32071700692 -4.6226601601 -0.13244700432 -0.5
          2.3120000362 -0.058240499347 -0.5 2.2014501095 -0.17346900702 -0.18166600168
          2.4390499592 -0.057027101517 -0.2462310046 2.2389800549 -0.33469301462 -0.31423199177
          2.2902700901 0.13368199766 -0.5 2.2796599865 0.15909999609 -0.20078100264
          2.4390499592 -0.057027101517 -0.2462310046 2.1815600395 -0.001020470052 -0.32536798716
          0.39225000143 -0.090401999652 -0.5 0.17147399485 -0.046462800354 -0.28626099229
          0.3679780066 0.042948998511 -0.26218301058 0.27188199759 -0.21608300507 -0.19496400654
          0.7291790247 -0.29900100827 0.29153800011 0.89871001244 -0.21273000538 0.19672900438
          0.98047602177 -0.18917199969 0.5 0.75085902214 -0.045475300401 0.28253901005
          -2.7017800808 -0.045854199678 -0.5 -2.8483600616 -0.1823129952 -0.18523199856
          -2.8274400234 0.051215600222 -0.3225030005 -2.6364200115 -0.0513737984 -0.25086298585
          3.1241300106 0.5 -0.23149099946 3.095690012 0.30450299382 0.0079884901643
          3.1808700562 0.17408800125 -0.17278499901 3.0563700199 0.30440598726 -0.29042899609
          0.14069800079 0.16885900497 -0.17604699731 0.3682860136 0.00067014299566 0.0082637900487
          0.35873600841 0.27615499496 -0.16060699522 0.3679780066 0.042948998511 -0.26218301058
          4.8106999397 -0.29430899024 0.31109198928 4.7109298706 -0.5 0.037262801081
          4.6710700989 -0.19623799622 0.19057400525 4.8184399605 -0.5 0.27545198798
          0.35873600841 0.27615499496 -0.16060699522 0.3682860136 0.00067014299566 0.0082637900487
          0.58461797237 0.18660899997 -0.17640599608 0.3679780066 0.042948998511 -0.26218301058
          4.8106999397 -0.29430899024 0.31109198928 4.7622699738 -0.21942800283 0.5
          4.8925499916 -0.35197499394 0.5 4.742000103 -0.5 0.47397199273
          4.8106999397 -0.29430899024 0.31109198928 4.6710700989 -0.19623799622 0.19057400525
          4.7622699738 -0.21942800283 0.5 4.6142997742 -0.33187198639 0.5
          4.8184399605 -0.5 0.27545198798 4.8106999397 -0.29430899024 0.31109198928
          4.8925499916 -0.35197499394 0.5 4.742000103 -0.5 0.47397199273
          4.8106999397 -0.29430899024 0.31109198928 4.6142997742 -0.33187198639 0.5
          4.7622699738 -0.21942800283 0.5 4.742000103 -0.5 0.47397199273
          3.1624600887 -0.015569499694 -0.02179059945 2.9201900959 0.0039753098972 -0.016150400043
          2.94404006 -0.24824899435 0.048307999969 2.9524600506 -0.22408300638 -0.21185599267
          3.1624600887 -0.015569499694 -0.02179059945 2.9201900959 0.0039753098972 -0.016150400043
          3.1743900776 -0.18350000679 0.1536089927 2.94404006 -0.24824899435 0.048307999969
          3.1624600887 -0.015569499694 -0.02179059945 3.1743900776 -0.18350000679 0.1536089927
          2.9201900959 0.0039753098972 -0.016150400043 2.9353599548 0.054025001824 0.25657498837
          3.1624600887 -0.015569499694 -0.02179059945 3.4346001148 0.010584499687 0.0013051299611
          3.4506099224 -0.25270500779 -0.04623780027 3.1743900776 -0.18350000679 0.1536089927
          3.1624600887 -0.015569499694 -0.02179059945 3.3886699677 0.01943529956 0.25713300705
          3.4346001148 0.010584499687 0.0013051299611 3.1743900776 -0.18350000679 0.1536089927
          1.3415499926 0.046351000667 -0.2966940105 1.4673299789 -0.16130299866 -0.30513200164
          1.2840600014 -0.15874500573 -0.5 1.2388900518 -0.17473700643 -0.16655999422
          1.2388900518 -0.17473700643 -0.16655999422 1.4914300442 0.0569607988 -0.04182960093
          1.3415499926 0.046351000667 -0.2966940105 1.4673299789 -0.16130299866 -0.30513200164
          -1.5302300453 -0.20296399295 0.1751369983 -1.334980011 -0.066682696342 0.27562999725
          -1.5232800245 0.099855400622 0.30515301228 -1.5096600056 -0.035843800753 0.024828599766
          2.9353599548 0.054025001824 0.25657498837 2.7103700638 -0.17533199489 0.17696000636
          2.9201900959 0.0039753098972 -0.016150400043 2.6777200699 -0.0055014099926 -0.0048864497803
          2.6777200699 -0.0055014099926 -0.0048864497803 2.9201900959 0.0039753098972 -0.016150400043
          2.94404006 -0.24824899435 0.048307999969 2.7103700638 -0.17533199489 0.17696000636
          0.96319800615 -0.25574100018 -0.086030602455 0.78195297718 -0.29943698645 0.031285099685
          0.82210099697 -0.27426099777 -0.29057401419 0.70115399361 -0.13068500161 -0.12672199309
          0.77619498968 -0.5 -0.05961849913 0.57815998793 -0.31825500727 -0.050177000463
          0.82210099697 -0.27426099777 -0.29057401419 0.78195297718 -0.29943698645 0.031285099685
          0.68863600492 -0.5 0.092009201646 0.78195297718 -0.29943698645 0.031285099685
          0.57815998793 -0.31825500727 -0.050177000463 0.77619498968 -0.5 -0.05961849913
          0.67495399714 0.10961399972 -0.5 0.73280501366 0.2939440012 -0.30173701048
          0.82974797487 0.27198299766 -0.5 0.71499300003 0.033225100487 -0.28708100319
          2.4395799637 -0.026134699583 0.038382198662 2.6700599194 -0.18108099699 -0.17258299887
          2.4389500618 -0.2577829957 -0.080456696451 2.6777200699 -0.0055014099926 -0.0048864497803
          1.0750000477 -0.14948399365 0.12495800108 1.2388900518 -0.17473700643 -0.16655999422
          1.1665500402 -0.30232200027 0.032807700336 1.2553399801 0.02869570069 -0.044535700232
          2.9201900959 0.0039753098972 -0.016150400043 2.6700599194 -0.18108099699 -0.17258299887
          2.8999099731 0.041673701257 -0.29681798816 2.6777200699 -0.0055014099926 -0.0048864497803
          2.9201900959 0.0039753098972 -0.016150400043 2.6777200699 -0.0055014099926 -0.0048864497803
          2.8999099731 0.041673701257 -0.29681798816 2.6477799416 0.16645799577 -0.17383100092
          1.7197300196 -0.0059337001294 -0.015229499899 1.71875 0.012455300428 0.32105600834
          1.7132099867 0.18727500737 0.17964400351 1.8789199591 -0.10240700096 0.16247299314
          -2.5157299042 -0.098369702697 0.5 -2.4325098991 0.0032291798852 0.31787699461
          -2.6140599251 -0.2892279923 0.31681698561 -2.4500799179 -0.18146699667 0.1914049983
          -3.0793800354 -0.5 0.028451299295 -3.1703898907 -0.28369298577 0.029881799594
          -3.1584899426 -0.5 -0.16631600261 -2.9412100315 -0.31262499094 -0.011466300115
          0.71180897951 0.31379199028 -0.019653400406 0.87731397152 0.049460299313 0.15210199356
          0.96667098999 0.22423000634 0.21116599441 0.80673497915 0.05526150018 -0.040332399309
          0.71180897951 0.31379199028 -0.019653400406 0.69335997105 0.13933600485 0.14205299318
          0.87731397152 0.049460299313 0.15210199356 0.80673497915 0.05526150018 -0.040332399309
          -1.0002299547 0.5 0.26042699814 -0.93830001354 0.5 0.10322599858
          -1.1475800276 0.23044300079 0.22876000404 -0.92035800219 0.31782001257 0.33497199416
          1.9567300081 0.0023706499487 0.0081458101049 1.8789199591 -0.10240700096 0.16247299314
          1.7132099867 0.18727500737 0.17964400351 1.9551000595 0.040498699993 0.28340399265
          -0.012120299973 -0.32062399387 0.28174200654 -0.17885400355 -0.17817400396 0.19088800251
          0.028599999845 -0.025005400181 0.30730199814 0.03605210036 -0.1630679965 0.5
          1.4673299789 -0.16130299866 -0.30513200164 1.4914300442 0.0569607988 -0.04182960093
          1.3415499926 0.046351000667 -0.2966940105 1.6074999571 0.030789300799 -0.26509699225
          -0.74051898718 -0.13983599842 0.1276730001 -0.94314199686 -0.25431698561 0.040656600147
          -0.63264602423 -0.32936599851 0.064718000591 -0.78096401691 -0.28885498643 -0.091540999711
          -3.5796399117 -0.036828301847 0.30965799093 -3.2899799347 -0.19551900029 0.21153800189
          -3.6202099323 -0.16945900023 0.16224400699 -3.4786798954 -0.29719600081 0.28423199058
          0.94293701649 0.27613300085 0.5 0.81075197458 0.14764200151 0.31798198819
          0.69564402103 0.31359699368 0.28978401423 0.76468199492 0.37051400542 0.5
          -4.2221798897 -0.17677399516 -0.20671699941 -4.2746400833 -0.5 -0.25492700934
          -4.439789772 -0.27735000849 -0.054897699505 -4.2342700958 -0.2943969965 -0.036790598184
          -4.697619915 0.5 -0.22214700282 -4.9034900665 0.5 -0.2928520143
          -4.936150074 0.5 -0.080450102687 -4.7795901299 0.30410701036 -0.28243198991
          4.2013001442 -0.5 -0.3026599884 4.2686200142 -0.36589500308 -0.5
          4.4281401634 -0.5 -0.37787801027 4.3579602242 -0.5 -0.20988300443
          -0.95835602283 -0.27399000525 0.5 -1.1246000528 -0.21291700006 0.24169400334
          -0.99834597111 -0.5 0.33863401413 -0.87598198652 -0.27951401472 0.27214699984
          -0.95835602283 -0.27399000525 0.5 -0.87598198652 -0.27951401472 0.27214699984
          -0.99834597111 -0.5 0.33863401413 -0.80443400145 -0.5 0.34285399318
          -0.80443400145 -0.5 0.34285399318 -0.87598198652 -0.27951401472 0.27214699984
          -0.99834597111 -0.5 0.33863401413 -0.91965401173 -0.5 0.069327197969
          3.9352300167 -0.034624699503 0.14412599802 3.8265800476 -0.00065459497273 0.32086899877
          4.039850235 -0.20272299647 0.21478900313 3.7557299137 -0.14269599319 0.12685400248
          3.8334798813 -0.29951399565 -0.035472199321 3.7557299137 -0.14269599319 0.12685400248
          3.9352300167 -0.034624699503 0.14412599802 4.039850235 -0.20272299647 0.21478900313
          -0.87598198652 -0.27951401472 0.27214699984 -1.1246000528 -0.21291700006 0.24169400334
          -0.94314199686 -0.25431698561 0.040656600147 -0.93832302094 -0.045258000493 0.24930199981
          -0.87598198652 -0.27951401472 0.27214699984 -0.93832302094 -0.045258000493 0.24930199981
          -0.94314199686 -0.25431698561 0.040656600147 -0.74051898718 -0.13983599842 0.1276730001
          3.353579998 0.25871399045 0.31244799495 3.3688399792 0.28460401297 0.022468499839
          3.5617899895 0.20520099998 0.20095099509 3.541369915 0.5 0.1197900027
          -1.6463500261 0.28474900126 -0.30618798733 -1.8110899925 0.48072299361 -0.5
          -1.8656400442 0.28522598743 -0.2969610095 -1.7690800428 0.27011099458 -0.5
          -1.6463500261 0.28474900126 -0.30618798733 -1.8656400442 0.28522598743 -0.2969610095
          -1.6768000126 0.5 -0.27391400933 -1.7420699596 0.2584669888 -0.11043199897
          -2.1895999908 0.28031998873 -0.27681100368 -2.4157299995 0.5 -0.27320700884
          -2.4949100018 0.29038199782 -0.30940899253 -2.3761999607 0.32358598709 -0.5
          -1.4892100096 0.17613700032 -0.19808200002 -1.6463500261 0.28474900126 -0.30618798733
          -1.4210100174 0.5 -0.29471999407 -1.4628200531 0.5 -0.09861010313
          -3.8897199631 -0.5 0.01333339978 -3.8540000916 -0.5 0.28207299113
          -3.8883500099 -0.22696000338 0.22436200082 -3.7200200558 -0.5 0.14442199469
          1.2840600014 -0.15874500573 -0.5 1.0735499859 -0.2803800106 -0.2859480083
          1.1912800074 -0.33144798875 -0.5 1.0786999464 -0.15874500573 -0.5
          2.2014501095 -0.17346900702 -0.18166600168 1.9453500509 -0.087545797229 -0.2573390007
          2.042320013 -0.28687000275 -0.5 2.2094399929 -0.21062499285 -0.5
          -2.9389500618 -0.039363101125 -0.5 -3.0114998817 -0.30267500877 -0.29305499792
          -3.1430599689 -0.16607600451 -0.5 -3.0681700706 -0.022411899641 -0.31216698885
          -3.1402900219 0.086144499481 -0.5 -3.387419939 -0.020452000201 -0.26496699452
          -3.0681700706 -0.022411899641 -0.31216698885 -3.1430599689 -0.16607600451 -0.5
          -1.5251499414 -0.076651901007 -0.31482899189 -1.3341200352 0.058667398989 -0.30476099253
          -1.2810100317 -0.16105599701 -0.5 -1.3521399498 -0.29692700505 -0.29181501269
          0.3679780066 0.042948998511 -0.26218301058 0.086851902306 0.090062998235 -0.5
          0.17147399485 -0.046462800354 -0.28626099229 0.19322299957 -0.078569203615 -0.5
          -0.51341497898 -0.020596599206 0.5 -0.54225701094 0.182366997 0.5
          -0.70902901888 -0.081924401224 0.5 -0.70620900393 0.037291798741 0.28922000527
          -3.1402900219 0.086144499481 -0.5 -2.9389500618 -0.039363101125 -0.5
          -3.1430599689 -0.16607600451 -0.5 -3.0681700706 -0.022411899641 -0.31216698885
          -0.70620900393 0.037291798741 0.28922000527 -0.54225701094 0.182366997 0.5
          -0.70902901888 -0.081924401224 0.5 -0.7510010004 0.25560700893 0.5
          -1.5764600039 0.36043098569 -0.5 -1.8110899925 0.48072299361 -0.5
          -1.6768000126 0.5 -0.27391400933 -1.6463500261 0.28474900126 -0.30618798733
          -1.5764600039 0.36043098569 -0.5 -1.6463500261 0.28474900126 -0.30618798733
          -1.3366099596 0.20833599567 -0.5 -1.6108299494 0.078509502113 -0.5
          -4.1456699371 -0.049980100244 -0.5 -4.1763601303 0.12014900148 -0.5
          -4.0346798897 -0.02448659949 -0.29127898812 -4.4012899399 0.03873860091 -0.27101901174
          3.353579998 0.25871399045 0.31244799495 3.1571199894 0.5 0.16706800461
          3.0071001053 0.30889099836 0.30772000551 3.1800200939 0.15828900039 0.1766680032
          3.353579998 0.25871399045 0.31244799495 3.1571199894 0.5 0.16706800461
          3.1800200939 0.15828900039 0.1766680032 3.3688399792 0.28460401297 0.022468499839
          3.353579998 0.25871399045 0.31244799495 3.3009901047 0.050491899252 0.5
          3.1938300133 0.27075499296 0.5 3.495059967 0.19994699955 0.5
          3.1938300133 0.27075499296 0.5 3.353579998 0.25871399045 0.31244799495
          3.495059967 0.19994699955 0.5 3.5066199303 0.45685198903 0.5
          3.3886699677 0.01943529956 0.25713300705 3.3009901047 0.050491899252 0.5
          3.353579998 0.25871399045 0.31244799495 3.495059967 0.19994699955 0.5
          2.8429698944 0.28180000186 -0.27394500375 2.7815999985 0.20081700385 -0.5
          2.6477799416 0.16645799577 -0.17383100092 2.6635499001 -0.0075318100862 -0.31723999977
          2.6635499001 -0.0075318100862 -0.31723999977 2.4390499592 -0.057027101517 -0.2462310046
          2.5377500057 -0.050653100014 -0.5 2.4803700447 0.1678159982 -0.5
          2.7815999985 0.20081700385 -0.5 2.6635499001 -0.0075318100862 -0.31723999977
          2.5377500057 -0.050653100014 -0.5 2.4803700447 0.1678159982 -0.5
          1.5800199509 0.5 0.11975900084 1.7132099867 0.18727500737 0.17964400351
          1.8424299955 0.5 0.20660300553 1.7531599998 0.5 0.036465600133
          1.7531599998 0.5 0.036465600133 1.7132099867 0.18727500737 0.17964400351
          1.8424299955 0.5 0.20660300553 1.9609899521 0.27691298723 0.076514601707
          -0.42740899324 -0.30482000113 -0.02907329984 -0.63264602423 -0.32936599851 0.064718000591
          -0.53925698996 -0.14979499578 0.041408799589 -0.47073799372 -0.22246700525 0.21898700297
          2.2269999981 0.29644799232 0.5 1.9254900217 0.21205799282 0.5
          2.0367600918 0.30077698827 0.30471900105 2.0662400723 0.5 0.45344299078
          2.2874000072 0.5 0.36383101344 2.2269999981 0.29644799232 0.5
          2.0367600918 0.30077698827 0.30471900105 2.0662400723 0.5 0.45344299078
          2.2874000072 0.5 0.36383101344 2.0367600918 0.30077698827 0.30471900105
          2.1185901165 0.5 0.19517299533 2.0662400723 0.5 0.45344299078
          -2.4949100018 0.29038199782 -0.30940899253 -2.6168899536 0.31174701452 -0.5
          -2.6483700275 0.13034400344 -0.5 -2.471460104 0.079349301755 -0.5
          -1.9649800062 -0.0049698902294 0.29592001438 -1.7749300003 -0.093701399863 0.5
          -1.7268799543 -0.26261898875 0.29539200664 -1.9215400219 -0.19377499819 0.17684599757
          3.6093900204 0.31306898594 -0.027008600533 3.5617899895 0.20520099998 0.20095099509
          3.730809927 0.29602000117 0.3136009872 3.8664000034 0.19483299553 0.16909499466
          3.8664000034 0.19483299553 0.16909499466 3.5617899895 0.20520099998 0.20095099509
          3.730809927 0.29602000117 0.3136009872 3.8265800476 -0.00065459497273 0.32086899877
          1.0695999861 0.5 0.21742899716 1.142539978 0.300906986 0.29215401411
          0.96667098999 0.22423000634 0.21116599441 1.0224000216 0.5 0.41114699841
          3.8664000034 0.19483299553 0.16909499466 3.730809927 0.29602000117 0.3136009872
          3.8128800392 0.20643000305 0.5 3.8265800476 -0.00065459497273 0.32086899877
          -0.028405899182 0.038570299745 -0.28863999248 0.12687399983 0.024941600859 0.019101899117
          0.14069800079 0.16885900497 -0.17604699731 -0.014450499788 -0.12391400337 -0.11072800308
          -1.1438100338 0.013993400149 0.21154500544 -1.1475800276 0.23044300079 0.22876000404
          -0.86464500427 0.18405400217 0.1796399951 -0.93832302094 -0.045258000493 0.24930199981
          -0.7856760025 -0.061230801046 -0.29652500153 -0.89940702915 0.048585001379 -0.5
          -0.96304500103 0.042934101075 -0.20367699862 -0.98949998617 -0.096335403621 -0.5
          0.71499300003 0.033225100487 -0.28708100319 0.58461797237 0.18660899997 -0.17640599608
          0.70115399361 -0.13068500161 -0.12672199309 0.48660299182 -0.097960598767 -0.14581799507
          0.3679780066 0.042948998511 -0.26218301058 0.48660299182 -0.097960598767 -0.14581799507
          0.52369099855 -0.25701698661 -0.29001700878 0.27188199759 -0.21608300507 -0.19496400654
          0.58827602863 -0.023083500564 0.03204099834 0.36774501204 -0.27583301067 0.050296399742
          0.48660299182 -0.097960598767 -0.14581799507 0.3682860136 0.00067014299566 0.0082637900487
          0.58827602863 -0.023083500564 0.03204099834 0.36774501204 -0.27583301067 0.050296399742
          0.57815998793 -0.31825500727 -0.050177000463 0.48660299182 -0.097960598767 -0.14581799507
          -0.21006199718 -0.066769301891 -0.5 -0.12994900346 0.14103500545 -0.5
          -0.01470979955 -0.077135197818 -0.5 -0.028405899182 0.038570299745 -0.28863999248
          4.1566100121 -0.01251959987 -0.28246301413 4.317220211 0.013630899601 -0.032561101019
          4.3278198242 -0.19421100616 -0.1541839987 4.0779399872 0.0020779399201 -0.0058176601306
          4.1566100121 -0.01251959987 -0.28246301413 4.2944598198 0.20695400238 -0.17472800612
          4.317220211 0.013630899601 -0.032561101019 4.0779399872 0.0020779399201 -0.0058176601306
          4.2944598198 0.20695400238 -0.17472800612 4.0785198212 0.2688550055 0.022481000051
          4.317220211 0.013630899601 -0.032561101019 4.0779399872 0.0020779399201 -0.0058176601306
          -1.728489995 -0.2819840014 0.029070099816 -1.8892199993 -0.5 -0.034159000963
          -1.6324599981 -0.5 0.14717400074 -1.7730799913 -0.5 -0.18303699791
          4.317220211 0.013630899601 -0.032561101019 4.0785198212 0.2688550055 0.022481000051
          4.3127498627 0.19265699387 0.16710400581 4.0779399872 0.0020779399201 -0.0058176601306
          4.317220211 0.013630899601 -0.032561101019 4.0886101723 0.063145399094 0.2613709867
          4.0779399872 0.0020779399201 -0.0058176601306 4.3127498627 0.19265699387 0.16710400581
          4.317220211 0.013630899601 -0.032561101019 4.3127498627 0.19265699387 0.16710400581
          4.5015702248 0.045086801052 0.27461698651 4.3434801102 -0.13885499537 0.17381000519
          4.3434801102 -0.13885499537 0.17381000519 4.317220211 0.013630899601 -0.032561101019
          4.0779399872 0.0020779399201 -0.0058176601306 4.1160001755 -0.25597798824 -0.023964699358
          4.317220211 0.013630899601 -0.032561101019 4.3278198242 -0.19421100616 -0.1541839987
          4.0779399872 0.0020779399201 -0.0058176601306 4.1160001755 -0.25597798824 -0.023964699358
          3.2869899273 -0.28170898557 0.32561299205 3.4012000561 -0.17302200198 0.5
          3.4452700615 -0.38378500938 0.5 3.1408400536 -0.26990801096 0.5
          4.34815979 -0.5 0.30085599422 4.4160299301 -0.33252999187 0.5
          4.5328397751 -0.5 0.28382301331 4.3113298416 -0.5 0.48262700438
          -2.7145900726 -0.082542397082 0.279302001 -2.6441700459 0.0031107501127 0.0051095401868
          -2.8699100018 0.034952599555 0.013808799908 -2.6965899467 -0.25478899479 0.070601798594
          -2.9412100315 -0.31262499094 -0.011466300115 -2.6965899467 -0.25478899479 0.070601798594
          -3.0034298897 -0.12146800011 0.11256500334 -2.8699100018 0.034952599555 0.013808799908
          3.7777900696 0.29186201096 -0.5 3.9046399593 0.029231099412 -0.28819599748
          4.0157899857 0.23598599434 -0.23627699912 3.9944400787 0.12515999377 -0.5
          0.057354498655 0.2768329978 0.30196899176 0.083770796657 0.16607399285 0.5
          0.33892700076 0.20277099311 0.5 0.25142499804 0.20395800471 0.20601199567
          -0.29398798943 -0.19200000167 -0.2282319963 -0.169242993 0.019168399274 -0.0072063799016
          -0.014450499788 -0.12391400337 -0.11072800308 -0.18628300726 -0.26750600338 -0.029726099223
          -0.169242993 0.019168399274 -0.0072063799016 0.12687399983 0.024941600859 0.019101899117
          0.14069800079 0.16885900497 -0.17604699731 -0.028405899182 0.038570299745 -0.28863999248
          4.1566100121 -0.01251959987 -0.28246301413 4.0779399872 0.0020779399201 -0.0058176601306
          3.9538800716 -0.19349299371 -0.21224999428 3.9046399593 0.029231099412 -0.28819599748
          4.1566100121 -0.01251959987 -0.28246301413 4.0779399872 0.0020779399201 -0.0058176601306
          3.9046399593 0.029231099412 -0.28819599748 4.0157899857 0.23598599434 -0.23627699912
          4.0157899857 0.23598599434 -0.23627699912 4.1566100121 -0.01251959987 -0.28246301413
          3.9944400787 0.12515999377 -0.5 3.9046399593 0.029231099412 -0.28819599748
          4.1330800056 -0.018558099866 -0.5 4.3479599953 -0.069560296834 -0.31158301234
          4.3206100464 -0.13641299307 -0.5 4.1566100121 -0.01251959987 -0.28246301413
          4.2942700386 0.099316298962 -0.5 4.3479599953 -0.069560296834 -0.31158301234
          4.1330800056 -0.018558099866 -0.5 4.1566100121 -0.01251959987 -0.28246301413
          4.0967798233 -0.21491999924 -0.5 4.1330800056 -0.018558099866 -0.5
          4.3206100464 -0.13641299307 -0.5 4.1566100121 -0.01251959987 -0.28246301413
          4.2942700386 0.099316298962 -0.5 4.3479599953 -0.069560296834 -0.31158301234
          4.3206100464 -0.13641299307 -0.5 4.1330800056 -0.018558099866 -0.5
          0.89871001244 -0.21273000538 0.19672900438 1.1665500402 -0.30232200027 0.032807700336
          1.0404800177 -0.5 0.084503702819 1.1263699532 -0.31314399838 0.27022001147
          0.89871001244 -0.21273000538 0.19672900438 0.96319800615 -0.25574100018 -0.086030602455
          1.0404800177 -0.5 0.084503702819 1.1665500402 -0.30232200027 0.032807700336
          1.1665500402 -0.30232200027 0.032807700336 1.0404800177 -0.5 0.084503702819
          1.0327399969 -0.5 -0.23253199458 0.96319800615 -0.25574100018 -0.086030602455
          -2.2191998959 0.31082698703 0.26025301218 -2.2944800854 0.10816299915 0.5
          -2.1791601181 0.066247500479 0.26825898886 -2.3996500969 0.17564900219 0.17784799635
          -2.2191998959 0.31082698703 0.26025301218 -2.2944800854 0.10816299915 0.5
          -2.1011199951 0.16092300415 0.5 -2.1791601181 0.066247500479 0.26825898886
          -1.9215400219 -0.19377499819 0.17684599757 -2.0053899288 -0.31090599298 0.32138600945
          -2.03008008 -0.5 0.23870000243 -2.0675001144 -0.32273799181 0.069159403443
          -1.9607599974 -0.22289100289 0.5 -2.0053899288 -0.31090599298 0.32138600945
          -1.9649800062 -0.0049698902294 0.29592001438 -2.1403698921 -0.070216402411 0.5
          -2.2191998959 0.31082698703 0.26025301218 -2.332449913 0.5 0.39009299874
          -2.2189500332 0.32305899262 0.5 -2.4461400509 0.30663898587 0.5
          -2.332449913 0.5 0.39009299874 -2.2189500332 0.32305899262 0.5
          -2.0084600449 0.5 0.30924999714 -2.2191998959 0.31082698703 0.26025301218
          0.71499300003 0.033225100487 -0.28708100319 0.80673497915 0.05526150018 -0.040332399309
          0.58461797237 0.18660899997 -0.17640599608 0.89332699776 0.23076300323 -0.16234900057
          -4.2407898903 -0.014909300022 0.29183000326 -4.0238199234 -0.033451199532 0.28527000546
          -4.1479997635 0.1524810046 0.18773500621 -4.1423802376 -0.18350799382 0.11192400008
          -4.0954899788 -0.1243320033 0.5 -4.2407898903 -0.014909300022 0.29183000326
          -4.237349987 -0.30583998561 0.5 -4.0945601463 -0.28051298857 0.31798601151
          0.70115399361 -0.13068500161 -0.12672199309 0.93065899611 -0.030296299607 -0.23989999294
          0.71499300003 0.033225100487 -0.28708100319 0.82210099697 -0.27426099777 -0.29057401419
          0.5808069706 -0.057113301009 -0.5 0.71499300003 0.033225100487 -0.28708100319
          0.69139498472 -0.21342000365 -0.5 0.52369099855 -0.25701698661 -0.29001700878
          0.82210099697 -0.27426099777 -0.29057401419 0.71499300003 0.033225100487 -0.28708100319
          0.69139498472 -0.21342000365 -0.5 0.89200401306 -0.15874500573 -0.5
          0.71499300003 0.033225100487 -0.28708100319 0.70115399361 -0.13068500161 -0.12672199309
          0.58461797237 0.18660899997 -0.17640599608 0.80673497915 0.05526150018 -0.040332399309
          0.96319800615 -0.25574100018 -0.086030602455 0.89871001244 -0.21273000538 0.19672900438
          0.78195297718 -0.29943698645 0.031285099685 0.76386100054 -0.10622999817 0.089437901974
          4.8187298775 -0.5 -0.29728299379 4.8028302193 -0.29806599021 -0.33157899976
          4.9067702293 -0.5 -0.13576300442 4.7140798569 -0.5 -0.1463650018
          -4.5893697739 -0.027997599915 -0.31035900116 -4.6226601601 -0.13244700432 -0.5
          -4.8039498329 -0.1570609957 -0.5 -4.7819399834 -0.28898400068 -0.32071700692
          -0.46434998512 -0.23358699679 -0.5 -0.56736600399 -0.5 -0.39558899403
          -0.63522601128 -0.32412400842 -0.5 -0.47420999408 -0.29338499904 -0.29220598936
          -4.765540123 0.29459398985 -0.015708299354 -5 0.15884299576 0.21330599487
          -5 0.28975299001 0.088944099844 -4.6812400818 0.14698000252 0.1767770052
          -3.315500021 0.091922298074 0.5 -3.40102005 0.049610700458 0.26974400878
          -3.1326100826 -0.026751099154 0.30142500997 -3.177740097 0.19153399765 0.19352599978
          -1.0471099615 0.090339496732 -0.5 -1.1753100157 0.18597100675 -0.21642799675
          -0.92764699459 0.27740699053 -0.26456698775 -0.96304500103 0.042934101075 -0.20367699862
          -1.2071399689 0.32934400439 -0.5 -1.3414299488 0.2976360023 -0.30167099833
          -1.1753100157 0.18597100675 -0.21642799675 -1.2034000158 0.121028997 -0.5
          -0.86464500427 0.18405400217 0.1796399951 -0.71377199888 0.30195298791 0.28811401129
          -0.70620900393 0.037291798741 0.28922000527 -0.7510010004 0.25560700893 0.5
          3.92689991 -0.25916099548 -0.5 3.7846400738 -0.3112359941 -0.2879639864
          4.0018801689 -0.5 -0.21358500421 3.8477098942 -0.5 -0.38085699081
          -3.1307299137 0.1212079972 0.5 -3.315500021 0.091922298074 0.5
          -3.1326100826 -0.026751099154 0.30142500997 -3.177740097 0.19153399765 0.19352599978
          2.3865699768 -0.46860298514 0.5 2.2452199459 -0.36571800709 0.5
          2.2669200897 -0.32125800848 0.30331799388 2.4968700409 -0.3149009943 0.5
          2.4968700409 -0.3149009943 0.5 2.3865699768 -0.46860298514 0.5
          2.4503700733 -0.5 0.32925000787 2.2669200897 -0.32125800848 0.30331799388
          -4.1248002052 0.32227998972 0.33130601048 -3.9800200462 0.29855400324 0.5
          -3.8861699104 0.22745600343 0.24729199708 -3.971339941 0.069716103375 0.5
          -1.4115899801 -0.27296701074 -0.5 -1.3610700369 -0.5 -0.49804601073
          -1.3521399498 -0.29692700505 -0.29181501269 -1.2095999718 -0.31749498844 -0.5
          4.0863099098 -0.5 0.17567700148 4.039850235 -0.20272299647 0.21478900313
          3.9721999168 -0.5 0.36053299904 3.8753499985 -0.34310999513 0.22761000693
          4.5424098969 -0.083453699946 0.5 4.6142997742 -0.33187198639 0.5
          4.7622699738 -0.21942800283 0.5 4.4824900627 -0.2778429985 0.28902798891
          -1.4028300047 -0.15640300512 -0.13328300416 -1.4892100096 0.17613700032 -0.19808200002
          -1.5251499414 -0.076651901007 -0.31482899189 -1.3341200352 0.058667398989 -0.30476099253
          0.2199189961 -0.15206000209 -0.010414100252 0.3682860136 0.00067014299566 0.0082637900487
          0.36774501204 -0.27583301067 0.050296399742 0.3798109889 -0.11770299822 0.17650899291
          1.2285900116 0.5 1.5277299099e-05 1.3350299597 0.5 0.26320800185
          1.2676099539 0.18327300251 0.17430500686 1.142539978 0.300906986 0.29215401411
          3.7557299137 -0.14269599319 0.12685400248 3.8753499985 -0.34310999513 0.22761000693
          3.678839922 -0.28315201402 0.29635599256 3.8265800476 -0.00065459497273 0.32086899877
          -2.461810112 -0.5 -0.23160800338 -2.3032701015 -0.32206401229 -0.5
          -2.4834799767 -0.27802801132 -0.5 -2.4805099964 -0.5 -0.46317800879
          -2.461810112 -0.5 -0.23160800338 -2.2559299469 -0.5 -0.47738999128
          -2.3032701015 -0.32206401229 -0.5 -2.4805099964 -0.5 -0.46317800879
          -2.2273199558 -0.5 -0.24430799484 -2.2559299469 -0.5 -0.47738999128
          -2.3032701015 -0.32206401229 -0.5 -2.461810112 -0.5 -0.23160800338
          -1.4028300047 -0.15640300512 -0.13328300416 -1.3341200352 0.058667398989 -0.30476099253
          -1.1722400188 -0.078797601163 -0.24050499499 -1.2951300144 0.045372098684 -0.065485596657
          -1.4028300047 -0.15640300512 -0.13328300416 -1.4892100096 0.17613700032 -0.19808200002
          -1.3341200352 0.058667398989 -0.30476099253 -1.2951300144 0.045372098684 -0.065485596657
          -4.8052501678 -0.030253799632 0.27854898572 -4.794549942 -0.32775598764 0.30355900526
          -4.7207899094 -0.18141900003 0.5 -4.605700016 -0.14155100286 0.34099599719
          -4.7207899094 -0.18141900003 0.5 -4.794549942 -0.32775598764 0.30355900526
          -4.5459198952 -0.24766799808 0.5 -4.605700016 -0.14155100286 0.34099599719
          0.81075197458 0.14764200151 0.31798198819 0.96667098999 0.22423000634 0.21116599441
          1.0831899643 -0.026730500162 0.28337299824 0.98735398054 0.096338197589 0.5
          0.94293701649 0.27613300085 0.5 0.98735398054 0.096338197589 0.5
          0.96667098999 0.22423000634 0.21116599441 0.81075197458 0.14764200151 0.31798198819
          0.94293701649 0.27613300085 0.5 0.81075197458 0.14764200151 0.31798198819
          0.96667098999 0.22423000634 0.21116599441 0.69564402103 0.31359699368 0.28978401423
          -0.94314199686 -0.25431698561 0.040656600147 -1.0007799864 -0.5 -0.1113319993
          -1.1855100393 -0.25224798918 -0.0140108997 -1.1115700006 -0.5 0.061790000647
          0.45764601231 0.28433001041 0.29305499792 0.33892700076 0.20277099311 0.5
          0.46630200744 0.046083901078 0.25881299376 0.25142499804 0.20395800471 0.20601199567
          0.45764601231 0.28433001041 0.29305499792 0.33892700076 0.20277099311 0.5
          0.5860620141 0.083102703094 0.5 0.46630200744 0.046083901078 0.25881299376
          1.4914300442 0.0569607988 -0.04182960093 1.4356100559 0.30725300312 0.014958400279
          1.2676099539 0.18327300251 0.17430500686 1.2553399801 0.02869570069 -0.044535700232
          1.4914300442 0.0569607988 -0.04182960093 1.2676099539 0.18327300251 0.17430500686
          1.4909499884 0.035039100796 0.2443370074 1.2553399801 0.02869570069 -0.044535700232
          1.4914300442 0.0569607988 -0.04182960093 1.2553399801 0.02869570069 -0.044535700232
          1.4909499884 0.035039100796 0.2443370074 1.298789978 -0.15092399716 0.16408100724
          1.4679900408 -0.23194299638 -0.032342601568 1.298789978 -0.15092399716 0.16408100724
          1.2553399801 0.02869570069 -0.044535700232 1.4914300442 0.0569607988 -0.04182960093
          1.4679900408 -0.23194299638 -0.032342601568 1.2553399801 0.02869570069 -0.044535700232
          1.2388900518 -0.17473700643 -0.16655999422 1.4914300442 0.0569607988 -0.04182960093
          1.4679900408 -0.23194299638 -0.032342601568 1.298789978 -0.15092399716 0.16408100724
          1.2388900518 -0.17473700643 -0.16655999422 1.2553399801 0.02869570069 -0.044535700232
          1.2553399801 0.02869570069 -0.044535700232 1.2388900518 -0.17473700643 -0.16655999422
          1.1665500402 -0.30232200027 0.032807700336 1.298789978 -0.15092399716 0.16408100724
          1.2553399801 0.02869570069 -0.044535700232 1.2676099539 0.18327300251 0.17430500686
          1.4909499884 0.035039100796 0.2443370074 1.298789978 -0.15092399716 0.16408100724
          1.2553399801 0.02869570069 -0.044535700232 1.0831899643 -0.026730500162 0.28337299824
          1.2676099539 0.18327300251 0.17430500686 1.298789978 -0.15092399716 0.16408100724
          -4.0346798897 -0.02448659949 -0.29127898812 -3.8989500999 0.24744200706 -0.23554000258
          -3.8034300804 0.010254199617 -0.24826699495 -3.8818199635 0.0094203203917 -0.0044903801754
          -1.3727099895 0.30601900816 0.28291600943 -1.45697999 0.29096999764 0.5
          -1.5232800245 0.099855400622 0.30515301228 -1.6647800207 0.24374599755 0.22540199757
          -4.0346798897 -0.02448659949 -0.29127898812 -4.1503901482 0.15257999301 -0.18268600106
          -4.2221798897 -0.17677399516 -0.20671699941 -4.4012899399 0.03873860091 -0.27101901174
          -4.4353399277 -0.2726149857 -0.5 -4.4034199715 -0.5 -0.43696299195
          -4.4539299011 -0.1930360049 -0.27674099803 -4.2490501404 -0.32240501046 -0.5
          -4.4539299011 -0.1930360049 -0.27674099803 -4.4034199715 -0.5 -0.43696299195
          -4.2746400833 -0.5 -0.25492700934 -4.2490501404 -0.32240501046 -0.5
          -4.2221798897 -0.17677399516 -0.20671699941 -4.4539299011 -0.1930360049 -0.27674099803
          -4.2746400833 -0.5 -0.25492700934 -4.2490501404 -0.32240501046 -0.5
          -4.2221798897 -0.17677399516 -0.20671699941 -4.4539299011 -0.1930360049 -0.27674099803
          -4.439789772 -0.27735000849 -0.054897699505 -4.2746400833 -0.5 -0.25492700934
          -2.5539898872 0.16441999376 -0.075327299535 -2.3996500969 0.17564900219 0.17784799635
          -2.6441700459 0.0031107501127 0.0051095401868 -2.6367399693 0.26534798741 0.078260503709
          -4.4539299011 -0.1930360049 -0.27674099803 -4.4034199715 -0.5 -0.43696299195
          -4.5859699249 -0.5 -0.20652399957 -4.2746400833 -0.5 -0.25492700934
          -4.4539299011 -0.1930360049 -0.27674099803 -4.623360157 -0.31539899111 -0.5
          -4.5859699249 -0.5 -0.20652399957 -4.4034199715 -0.5 -0.43696299195
          3.9580099583 -0.5 0.00037011300446 3.8334798813 -0.29951399565 -0.035472199321
          3.8753499985 -0.34310999513 0.22761000693 3.8067100048 -0.5 0.09490519762
          -2.2661499977 -0.26958799362 0.5 -2.3103899956 -0.47168698907 0.5
          -2.3618400097 -0.32881900668 0.3184300065 -2.4707000256 -0.30024200678 0.5
          -2.3618400097 -0.32881900668 0.3184300065 -2.3103899956 -0.47168698907 0.5
          -2.1087300777 -0.5 0.46349099278 -2.268130064 -0.5 0.23155200481
          -2.4707000256 -0.30024200678 0.5 -2.5125598907 -0.5 0.46646800637
          -2.3103899956 -0.47168698907 0.5 -2.3618400097 -0.32881900668 0.3184300065
          2.1893599033 0.29838100076 -0.5 2.2902700901 0.13368199766 -0.5
          2.2007598877 0.32477998734 -0.29550099373 2.3855099678 0.34596499801 -0.5
          2.2902700901 0.13368199766 -0.5 2.1893599033 0.29838100076 -0.5
          2.2007598877 0.32477998734 -0.29550099373 2.1815600395 -0.001020470052 -0.32536798716
          -0.18628300726 -0.26750600338 -0.029726099223 -0.012120299973 -0.32062399387 0.28174200654
          -0.035155199468 -0.5 0.074470199645 -0.17885400355 -0.17817400396 0.19088800251
          -0.18628300726 -0.26750600338 -0.029726099223 0.10427799821 -0.31776800752 -0.01549869962
          -0.035155199468 -0.5 0.074470199645 -0.012120299973 -0.32062399387 0.28174200654
          0.23762199283 -0.5 0.14814600348 -0.035155199468 -0.5 0.074470199645
          0.10427799821 -0.31776800752 -0.01549869962 -0.012120299973 -0.32062399387 0.28174200654
          0.23762199283 -0.5 0.14814600348 -0.012120299973 -0.32062399387 0.28174200654
          0.10427799821 -0.31776800752 -0.01549869962 0.15296399593 -0.18104599416 0.18370200694
          0.098988100886 -0.5 0.3943490088 -0.10501199961 -0.31161299348 0.5
          -0.16431899369 -0.5 0.31346601248 -0.012120299973 -0.32062399387 0.28174200654
          0.77619498968 -0.5 -0.05961849913 0.62789398432 -0.5 -0.19392700493
          0.82210099697 -0.27426099777 -0.29057401419 0.57815998793 -0.31825500727 -0.050177000463
          -0.70620900393 0.037291798741 0.28922000527 -0.92035800219 0.31782001257 0.33497199416
          -0.86464500427 0.18405400217 0.1796399951 -0.7510010004 0.25560700893 0.5
          0.5135999918 -0.5 0.087553098798 0.42797398567 -0.5 -0.20191599429
          0.62789398432 -0.5 -0.19392700493 0.57815998793 -0.31825500727 -0.050177000463
          0.5135999918 -0.5 0.087553098798 0.42797398567 -0.5 -0.20191599429
          0.57815998793 -0.31825500727 -0.050177000463 0.36774501204 -0.27583301067 0.050296399742
          0.36774501204 -0.27583301067 0.050296399742 0.42797398567 -0.5 -0.20191599429
          0.57815998793 -0.31825500727 -0.050177000463 0.27188199759 -0.21608300507 -0.19496400654
          -4.2407898903 -0.014909300022 0.29183000326 -4.411260128 -0.00020594299713 -0.0010824199999
          -4.5181999207 0.028785899282 0.28230598569 -4.3976202011 -0.16255900264 0.25912800431
          -4.2407898903 -0.014909300022 0.29183000326 -4.3976202011 -0.16255900264 0.25912800431
          -4.5181999207 0.028785899282 0.28230598569 -4.3030099869 0.0012274599867 0.5
          0.57815998793 -0.31825500727 -0.050177000463 0.42797398567 -0.5 -0.20191599429
          0.52369099855 -0.25701698661 -0.29001700878 0.27188199759 -0.21608300507 -0.19496400654
          0.57815998793 -0.31825500727 -0.050177000463 0.42797398567 -0.5 -0.20191599429
          0.62789398432 -0.5 -0.19392700493 0.52369099855 -0.25701698661 -0.29001700878
          0.57815998793 -0.31825500727 -0.050177000463 0.62789398432 -0.5 -0.19392700493
          0.82210099697 -0.27426099777 -0.29057401419 0.52369099855 -0.25701698661 -0.29001700878
          -3.1326100826 -0.026751099154 0.30142500997 -3.2899799347 -0.19551900029 0.21153800189
          -3.119879961 0.056279499084 0.0078261103481 -3.353219986 0.018101999536 -0.0069937198423
          -3.177740097 0.19153399765 0.19352599978 -3.1326100826 -0.026751099154 0.30142500997
          -3.119879961 0.056279499084 0.0078261103481 -3.353219986 0.018101999536 -0.0069937198423
          -3.119879961 0.056279499084 0.0078261103481 -3.353219986 0.018101999536 -0.0069937198423
          -3.3652899265 0.29221200943 0.018539199606 -3.177740097 0.19153399765 0.19352599978
          -0.36137199402 0.054711200297 -0.5 -0.39605501294 0.24562799931 -0.5
          -0.25742098689 0.29623898864 -0.3442530036 -0.47644600272 0.21734400094 -0.22011299431
          -3.5694301128 0.5 -0.27657601237 -3.4697299004 0.28407201171 -0.298379004
          -3.6554999352 0.5 -0.12951600552 -3.5640099049 0.29994499683 -0.013255200349
          -4.6675601006 -0.16073800623 -0.17753699422 -4.7836899757 -0.0049985698424 -0.0062314402312
          -5 -0.16616299748 -0.067754097283 -4.7847399712 0.018612299114 -0.27819800377
          -4.7836899757 -0.0049985698424 -0.0062314402312 -5 0.1004910022 -0.10199099779
          -5 -0.16616299748 -0.067754097283 -4.7847399712 0.018612299114 -0.27819800377
          -4.7847399712 0.018612299114 -0.27819800377 -5 0.1004910022 -0.10199099779
          -4.765540123 0.29459398985 -0.015708299354 -4.7836899757 -0.0049985698424 -0.0062314402312
          -4.6261501312 0.17262099683 -0.1935839951 -4.7847399712 0.018612299114 -0.27819800377
          -4.765540123 0.29459398985 -0.015708299354 -4.7836899757 -0.0049985698424 -0.0062314402312
          -3.0080699921 0.29238799214 0.028416100889 -3.2138299942 0.5 0.12549799681
          -3.0836999416 0.5 0.28708401322 -3.012720108 0.29143700004 0.30083501339
          -2.8985300064 0.5 0.19352899492 -3.0080699921 0.29238799214 0.028416100889
          -3.0836999416 0.5 0.28708401322 -3.012720108 0.29143700004 0.30083501339
          -4.5986399651 0.089573398232 -0.0050773997791 -4.765540123 0.29459398985 -0.015708299354
          -4.5506501198 0.30194398761 0.066922001541 -4.6812400818 0.14698000252 0.1767770052
          -4.5506501198 0.30194398761 0.066922001541 -4.4165802002 0.22745400667 0.23878499866
          -4.5986399651 0.089573398232 -0.0050773997791 -4.6812400818 0.14698000252 0.1767770052
          -4.5506501198 0.30194398761 0.066922001541 -4.4165802002 0.22745400667 0.23878499866
          -4.411260128 -0.00020594299713 -0.0010824199999 -4.5986399651 0.089573398232 -0.0050773997791
          -4.5986399651 0.089573398232 -0.0050773997791 -4.3864398003 0.25989100337 -0.089046299458
          -4.411260128 -0.00020594299713 -0.0010824199999 -4.5506501198 0.30194398761 0.066922001541
          4.4985699654 0.29182401299 0.2750479877 4.4730300903 0.36080300808 0.5
          4.625770092 0.13625299931 0.5 4.390999794 0.12619799376 0.5
          4.5015702248 0.045086801052 0.27461698651 4.4985699654 0.29182401299 0.2750479877
          4.625770092 0.13625299931 0.5 4.390999794 0.12619799376 0.5
          -3.6472799778 0.44761100411 -0.5 -3.5694301128 0.5 -0.27657601237
          -3.7156999111 0.29170098901 -0.33228498697 -3.7526800632 0.5 -0.34413599968
          4.3127498627 0.19265699387 0.16710400581 4.4985699654 0.29182401299 0.2750479877
          4.390999794 0.12619799376 0.5 4.2713398933 0.33074501157 0.5
          4.4985699654 0.29182401299 0.2750479877 4.2713398933 0.33074501157 0.5
          4.3127498627 0.19265699387 0.16710400581 4.1333699226 0.29578199983 0.28484800458
          4.4985699654 0.29182401299 0.2750479877 4.4730300903 0.36080300808 0.5
          4.390999794 0.12619799376 0.5 4.2713398933 0.33074501157 0.5
          -1.728489995 -0.2819840014 0.029070099816 -1.730610013 -0.00066968100145 -0.0049977498129
          -1.9655499458 0.017111200839 0.015656199306 -1.9544999599 -0.19884000719 -0.16746899486
          -1.728489995 -0.2819840014 0.029070099816 -1.730610013 -0.00066968100145 -0.0049977498129
          -1.9215400219 -0.19377499819 0.17684599757 -1.9655499458 0.017111200839 0.015656199306
          -2.187210083 -0.061865199357 0.039609499276 -2.1682898998 -0.037599701434 -0.23476999998
          -1.9544999599 -0.19884000719 -0.16746899486 -1.9655499458 0.017111200839 0.015656199306
          -2.4949100018 0.29038199782 -0.30940899253 -2.8308899403 0.31933999062 -0.31058201194
          -2.6168899536 0.31174701452 -0.5 -2.7123599052 0.5 -0.38375499845
          -4.7226400375 0.0055706598796 0.5 -4.6791801453 0.16429899633 0.5
          -4.8773698807 0.1690479964 0.5 -4.8052501678 -0.030253799632 0.27854898572
          0.94293701649 0.27613300085 0.5 0.98735398054 0.096338197589 0.5
          0.81075197458 0.14764200151 0.31798198819 0.7305060029 0.19254399836 0.5
          -4.1503901482 0.15257999301 -0.18268600106 -4.3864398003 0.25989100337 -0.089046299458
          -4.4012899399 0.03873860091 -0.27101901174 -4.2864198685 0.30046600103 -0.30744600296
          -3.177740097 0.19153399765 0.19352599978 -3.3868999481 0.28687500954 0.25560098886
          -3.2776799202 0.5 0.32763698697 -3.2058999538 0.30942299962 0.5
          -4.2389798164 0.42935600877 -0.5 -4.4496002197 0.5 -0.48874101043
          -4.2864198685 0.30046600103 -0.30744600296 -4.3405499458 0.17424100637 -0.5
          -4.2389798164 0.42935600877 -0.5 -4.4496002197 0.5 -0.48874101043
          -4.4078397751 0.5 -0.27026000619 -4.2864198685 0.30046600103 -0.30744600296
          -4.2864198685 0.30046600103 -0.30744600296 -4.4078397751 0.5 -0.27026000619
          -4.2751197815 0.5 0.02419850044 -4.3864398003 0.25989100337 -0.089046299458
          1.6531300545 -0.5 0.42902299762 1.4891799688 -0.27188199759 0.26980000734
          1.6352499723 -0.5 0.19289499521 1.8512899876 -0.25720700622 0.29749301076
          1.8518699408 -0.5 0.28856000304 1.6531300545 -0.5 0.42902299762
          1.6352499723 -0.5 0.19289499521 1.8512899876 -0.25720700622 0.29749301076
          -0.78096401691 -0.28885498643 -0.091540999711 -0.81901800632 -0.064964897931 -0.069114297628
          -0.93913400173 -0.20071199536 -0.20192199945 -0.7856760025 -0.061230801046 -0.29652500153
          2.9283499718 0.5 0.14330999553 2.8141000271 0.33296000957 0.21601100266
          3.0071001053 0.30889099836 0.30772000551 2.966039896 0.21264900267 0.13400100172
          -4.500120163 0.30916801095 -0.29975399375 -4.514550209 0.5 -0.045017201453
          -4.3864398003 0.25989100337 -0.089046299458 -4.6261501312 0.17262099683 -0.1935839951
          -2.1895999908 0.28031998873 -0.27681100368 -2.3742499352 0.16180799901 -0.16647900641
          -2.182790041 0.25494199991 0.029647100717 -2.2036099434 0.092982001603 -0.086743198335
          -4.6541099548 0.5 -0.42925700545 -4.4496002197 0.5 -0.48874101043
          -4.5752401352 0.31679400802 -0.5 -4.500120163 0.30916801095 -0.29975399375
          2.8141000271 0.33296000957 0.21601100266 2.966039896 0.21264900267 0.13400100172
          2.8604700565 0.28147599101 -0.024887500331 2.6889400482 0.16072399914 0.18579299748
          2.2452199459 -0.36571800709 0.5 2.0716900826 -0.38688901067 0.5
          2.0565500259 -0.31903299689 0.2972239852 2.1368100643 -0.22857700288 0.5
          3.0071001053 0.30889099836 0.30772000551 3.1800200939 0.15828900039 0.1766680032
          2.966039896 0.21264900267 0.13400100172 2.9353599548 0.054025001824 0.25657498837
          2.2452199459 -0.36571800709 0.5 2.0716900826 -0.38688901067 0.5
          2.2103800774 -0.5 0.38068500161 2.0565500259 -0.31903299689 0.2972239852
          2.8604700565 0.28147599101 -0.024887500331 2.9765999317 0.15742999315 -0.14321500063
          2.9201900959 0.0039753098972 -0.016150400043 2.966039896 0.21264900267 0.13400100172
          1.8518699408 -0.5 0.28856000304 2.0565500259 -0.31903299689 0.2972239852
          1.8512899876 -0.25720700622 0.29749301076 1.9245300293 -0.27816799283 0.073713801801
          2.1778399944 -0.17710599303 0.19188399613 2.0565500259 -0.31903299689 0.2972239852
          2.2314100266 -0.30056801438 0.0065283500589 1.9245300293 -0.27816799283 0.073713801801
          2.1778399944 -0.17710599303 0.19188399613 2.0752000809 -0.5 0.1838440001
          2.2314100266 -0.30056801438 0.0065283500589 2.0565500259 -0.31903299689 0.2972239852
          -0.53925698996 -0.14979499578 0.041408799589 -0.78096401691 -0.28885498643 -0.091540999711
          -0.63264602423 -0.32936599851 0.064718000591 -0.6270070076 -0.18018999696 -0.18880400062
          -3.6247899532 0.5 0.17990300059 -3.7465999126 0.5 0.026138799265
          -3.8539500237 0.5 0.19824199378 -3.7612600327 0.27116200328 0.015408799984
          -1.1855100393 -0.25224798918 -0.0140108997 -1.4028300047 -0.15640300512 -0.13328300416
          -1.1352299452 -0.30921301246 -0.27610599995 -1.1722400188 -0.078797601163 -0.24050499499
          -1.1855100393 -0.25224798918 -0.0140108997 -1.1722400188 -0.078797601163 -0.24050499499
          -1.1352299452 -0.30921301246 -0.27610599995 -0.93913400173 -0.20071199536 -0.20192199945
          -4.411260128 -0.00020594299713 -0.0010824199999 -4.5685501099 -0.12892700732 -0.0029087499715
          -4.439789772 -0.27735000849 -0.054897699505 -4.4539299011 -0.1930360049 -0.27674099803
          -4.5685501099 -0.12892700732 -0.0029087499715 -4.6675601006 -0.16073800623 -0.17753699422
          -4.439789772 -0.27735000849 -0.054897699505 -4.4539299011 -0.1930360049 -0.27674099803
          -4.439789772 -0.27735000849 -0.054897699505 -4.7982001305 -0.27365100384 -0.020341299474
          -4.5685501099 -0.12892700732 -0.0029087499715 -4.5130600929 -0.32579600811 0.18804700673
          0.96319800615 -0.25574100018 -0.086030602455 0.77619498968 -0.5 -0.05961849913
          0.82210099697 -0.27426099777 -0.29057401419 0.78195297718 -0.29943698645 0.031285099685
          -4.5893697739 -0.027997599915 -0.31035900116 -4.6675601006 -0.16073800623 -0.17753699422
          -4.6226601601 -0.13244700432 -0.5 -4.7819399834 -0.28898400068 -0.32071700692
          -1.3560899496 -0.21440200508 0.5 -1.5214099884 -0.5 0.34752699733
          -1.2460000515 -0.40172600746 0.5 -1.3444800377 -0.30236798525 0.28137201071
          4.5015702248 0.045086801052 0.27461698651 4.7025499344 0.19734199345 0.20103999972
          4.5567698479 0.040265500546 -0.029345599934 4.794479847 -0.0099189598113 0.26575800776
          4.5015702248 0.045086801052 0.27461698651 4.625770092 0.13625299931 0.5
          4.7025499344 0.19734199345 0.20103999972 4.794479847 -0.0099189598113 0.26575800776
          4.625770092 0.13625299931 0.5 4.8295898438 0.25321400166 0.5
          4.7025499344 0.19734199345 0.20103999972 4.794479847 -0.0099189598113 0.26575800776
          4.625770092 0.13625299931 0.5 4.8295898438 0.25321400166 0.5
          4.794479847 -0.0099189598113 0.26575800776 4.7967801094 -0.036810200661 0.5
          4.7025499344 0.19734199345 0.20103999972 4.8295898438 0.25321400166 0.5
          5 0.27808099985 0.26434999704 4.794479847 -0.0099189598113 0.26575800776
          5 0.029062800109 0.15694400668 4.7025499344 0.19734199345 0.20103999972
          5 0.27808099985 0.26434999704 4.794479847 -0.0099189598113 0.26575800776
          5 0.029062800109 0.15694400668 4.794479847 -0.0099189598113 0.26575800776
          5 0.27808099985 0.26434999704 5 0.087072201073 0.42495000362
          4.794479847 -0.0099189598113 0.26575800776 4.8295898438 0.25321400166 0.5
          5 0.27808099985 0.26434999704 5 0.087072201073 0.42495000362
          4.6710700989 -0.19623799622 0.19057400525 4.8106999397 -0.29430899024 0.31109198928
          4.5328397751 -0.5 0.28382301331 4.4824900627 -0.2778429985 0.28902798891
          4.794479847 -0.0099189598113 0.26575800776 4.7025499344 0.19734199345 0.20103999972
          4.5567698479 0.040265500546 -0.029345599934 4.7783799171 -0.058915100992 0.015639599413
          4.794479847 -0.0099189598113 0.26575800776 4.7967801094 -0.036810200661 0.5
          4.9883899689 -0.15072099864 0.5 5 -0.20979200304 0.28537601233
          -1.2095999718 -0.31749498844 -0.5 -1.3521399498 -0.29692700505 -0.29181501269
          -1.2810100317 -0.16105599701 -0.5 -1.1352299452 -0.30921301246 -0.27610599995
          -0.87598198652 -0.27951401472 0.27214699984 -0.74638098478 -0.26905399561 0.5
          -0.70902901888 -0.081924401224 0.5 -0.65928399563 -0.29948800802 0.30083200336
          -1.0104800463 0.5 -0.2601659894 -1.2537200451 0.5 -0.48933500051
          -1.1828099489 0.5 -0.19919799268 -1.2071399689 0.32934400439 -0.5
          3.4532198906 -0.27570098639 -0.28086999059 3.6450901031 -0.17131699622 -0.19211299717
          3.4302000999 -0.042014900595 -0.25968700647 3.4951400757 -0.11613500118 -0.5
          3.4951400757 -0.11613500118 -0.5 3.2644200325 -0.026787700132 -0.5
          3.4302000999 -0.042014900595 -0.25968700647 3.4532198906 -0.27570098639 -0.28086999059
          3.4951400757 -0.11613500118 -0.5 3.2644200325 -0.026787700132 -0.5
          3.4532198906 -0.27570098639 -0.28086999059 3.190030098 -0.22524799407 -0.5
          3.4532198906 -0.27570098639 -0.28086999059 3.2644200325 -0.026787700132 -0.5
          3.4302000999 -0.042014900595 -0.25968700647 3.190030098 -0.22524799407 -0.5
          0.70115399361 -0.13068500161 -0.12672199309 0.80673497915 0.05526150018 -0.040332399309
          0.93065899611 -0.030296299607 -0.23989999294 0.96319800615 -0.25574100018 -0.086030602455
          -3.595760107 0.14106500149 0.5 -3.5796399117 -0.036828301847 0.30965799093
          -3.6482999325 -0.031938001513 0.5 -3.5133900642 -0.13522699475 0.5
          3.5617899895 0.20520099998 0.20095099509 3.8664000034 0.19483299553 0.16909499466
          3.6606800556 0.057222399861 0.047008000314 3.8265800476 -0.00065459497273 0.32086899877
          3.6093900204 0.31306898594 -0.027008600533 3.5617899895 0.20520099998 0.20095099509
          3.8664000034 0.19483299553 0.16909499466 3.6606800556 0.057222399861 0.047008000314
          -0.98949998617 -0.096335403621 -0.5 -0.7856760025 -0.061230801046 -0.29652500153
          -0.89940702915 0.048585001379 -0.5 -0.7581089735 -0.15487499535 -0.5
          -4.7982001305 -0.27365100384 -0.020341299474 -4.7461600304 -0.5 -0.23019599915
          -4.9761099815 -0.5 -0.16763499379 -4.7693600655 -0.5 -0.069937601686
          4.7025499344 0.19734199345 0.20103999972 5 0.27808099985 0.26434999704
          4.8432202339 0.33124399185 0.15127900243 5 0.029062800109 0.15694400668
          3.4346001148 0.010584499687 0.0013051299611 3.3886699677 0.01943529956 0.25713300705
          3.6606800556 0.057222399861 0.047008000314 3.6032299995 -0.0550327003 0.29886201024
          -2.4091000557 0.010666499846 0.010404500179 -2.1791601181 0.066247500479 0.26825898886
          -2.3996500969 0.17564900219 0.17784799635 -2.187210083 -0.061865199357 0.039609499276
          -2.4091000557 0.010666499846 0.010404500179 -2.3996500969 0.17564900219 0.17784799635
          -2.6128799915 0.13250499964 0.27421799302 -2.6441700459 0.0031107501127 0.0051095401868
          -3.4390599728 0.16396200657 -0.12648099661 -3.2168300152 0.015511999838 -0.16400499642
          -3.353219986 0.018101999536 -0.0069937198423 -3.2586500645 0.20448499918 -0.21992500126
          -0.16925099492 0.29148900509 0.27573001385 -0.10846299678 0.5 0.18573200703
          -0.29486501217 0.23727999628 0.084538802505 -0.021123599261 0.2901929915 -0.037268299609
          -0.042902801186 0.13622699678 0.15243600309 -0.16925099492 0.29148900509 0.27573001385
          -0.29486501217 0.23727999628 0.084538802505 -0.021123599261 0.2901929915 -0.037268299609
          0.46921399236 0.2665579915 0.056172598153 0.3682860136 0.00067014299566 0.0082637900487
          0.35873600841 0.27615499496 -0.16060699522 0.20313000679 0.30061998963 0.0047877700999
          -4.5071802139 -0.46488499641 0.5 -4.5130600929 -0.32579600811 0.18804700673
          -4.5986700058 -0.5 0.27377399802 -4.3996100426 -0.5 0.31058299541
          -3.1145401001 -0.33741301298 0.5 -3.2725000381 -0.39861398935 0.5
          -2.9936599731 -0.45610100031 0.5 -3.2333400249 -0.5 0.24993300438
          1.8255000114 -0.5 0.10807599872 1.664839983 -0.5 0.021711599082
          1.8100399971 -0.5 -0.073667302728 1.7191100121 -0.2926889956 0.013918399811
          -4.5986700058 -0.5 0.27377399802 -4.5130600929 -0.32579600811 0.18804700673
          -4.5459198952 -0.24766799808 0.5 -4.794549942 -0.32775598764 0.30355900526
          -4.5071802139 -0.46488499641 0.5 -4.5459198952 -0.24766799808 0.5
          -4.5130600929 -0.32579600811 0.18804700673 -4.3996100426 -0.5 0.31058299541
          -3.0034298897 -0.12146800011 0.11256500334 -3.119879961 0.056279499084 0.0078261103481
          -3.2899799347 -0.19551900029 0.21153800189 -3.1703898907 -0.28369298577 0.029881799594
          -0.021123599261 0.2901929915 -0.037268299609 -0.042902801186 0.13622699678 0.15243600309
          0.057354498655 0.2768329978 0.30196899176 0.20313000679 0.30061998963 0.0047877700999
          0.12687399983 0.024941600859 0.019101899117 -0.042902801186 0.13622699678 0.15243600309
          -0.021123599261 0.2901929915 -0.037268299609 0.20313000679 0.30061998963 0.0047877700999
          0.12687399983 0.024941600859 0.019101899117 -0.042902801186 0.13622699678 0.15243600309
          0.20313000679 0.30061998963 0.0047877700999 0.25142499804 0.20395800471 0.20601199567
          1.3733700514 -0.33255699277 0.11544699967 1.7191100121 -0.2926889956 0.013918399811
          1.4919899702 -0.5 0.0043379599229 1.6352499723 -0.5 0.19289499521
          -4.5578799248 -0.5 0.075488097966 -4.5130600929 -0.32579600811 0.18804700673
          -4.5986700058 -0.5 0.27377399802 -4.8312702179 -0.5 0.1501930058
          -0.020521700382 0.27518200874 -0.3097819984 0.086851902306 0.090062998235 -0.5
          -0.12616600096 0.363714993 -0.5 -0.12994900346 0.14103500545 -0.5
          1.3733700514 -0.33255699277 0.11544699967 1.4919899702 -0.5 0.0043379599229
          1.2443100214 -0.5 -0.079079799354 1.2694100142 -0.5 0.16097800434
          -0.020521700382 0.27518200874 -0.3097819984 0.14069800079 0.16885900497 -0.17604699731
          -0.021123599261 0.2901929915 -0.037268299609 0.075165897608 0.5 -0.16578200459
          3.7566299438 0.15342700481 -0.14512400329 3.8543400764 -0.043197199702 -0.061682298779
          4.0157899857 0.23598599434 -0.23627699912 3.9046399593 0.029231099412 -0.28819599748
          -4.7461600304 -0.5 -0.23019599915 -4.7819399834 -0.28898400068 -0.32071700692
          -4.7598800659 -0.5 -0.39154198766 -4.5859699249 -0.5 -0.20652399957
          3.8543400764 -0.043197199702 -0.061682298779 3.6606800556 0.057222399861 0.047008000314
          3.6450901031 -0.17131699622 -0.19211299717 3.7566299438 0.15342700481 -0.14512400329
          3.8543400764 -0.043197199702 -0.061682298779 3.7566299438 0.15342700481 -0.14512400329
          3.8664000034 0.19483299553 0.16909499466 3.6606800556 0.057222399861 0.047008000314
          -3.9185600281 -0.21505500376 -0.20922599733 -3.8106400967 -0.5 -0.18066500127
          -3.8310699463 -0.5 -0.38916000724 -4.0849199295 -0.30423098803 -0.31639400125
          -1.2071399689 0.32934400439 -0.5 -1.0104800463 0.5 -0.2601659894
          -1.1753100157 0.18597100675 -0.21642799675 -1.1828099489 0.5 -0.19919799268
          3.8543400764 -0.043197199702 -0.061682298779 4.0779399872 0.0020779399201 -0.0058176601306
          3.9046399593 0.029231099412 -0.28819599748 3.9538800716 -0.19349299371 -0.21224999428
          3.8543400764 -0.043197199702 -0.061682298779 4.0779399872 0.0020779399201 -0.0058176601306
          4.0157899857 0.23598599434 -0.23627699912 3.9046399593 0.029231099412 -0.28819599748
          -0.40286201239 -0.0046954802237 -0.0054140798748 -0.169242993 0.019168399274 -0.0072063799016
          -0.29486501217 0.23727999628 0.084538802505 -0.18946300447 0.17974199355 -0.1773750037
          -0.35255399346 0.016716400161 0.25871700048 -0.169242993 0.019168399274 -0.0072063799016
          -0.29486501217 0.23727999628 0.084538802505 -0.40286201239 -0.0046954802237 -0.0054140798748
          1.0404800177 -0.5 0.084503702819 1.1263699532 -0.31314399838 0.27022001147
          0.92648899555 -0.5 0.31108599901 0.89871001244 -0.21273000538 0.19672900438
          -0.169242993 0.019168399274 -0.0072063799016 -0.042902801186 0.13622699678 0.15243600309
          -0.29486501217 0.23727999628 0.084538802505 -0.021123599261 0.2901929915 -0.037268299609
          -0.169242993 0.019168399274 -0.0072063799016 -0.042902801186 0.13622699678 0.15243600309
          -0.021123599261 0.2901929915 -0.037268299609 0.12687399983 0.024941600859 0.019101899117
          -0.169242993 0.019168399274 -0.0072063799016 -0.021123599261 0.2901929915 -0.037268299609
          0.14069800079 0.16885900497 -0.17604699731 0.12687399983 0.024941600859 0.019101899117
          0.028599999845 -0.025005400181 0.30730199814 -0.042902801186 0.13622699678 0.15243600309
          0.12687399983 0.024941600859 0.019101899117 0.25142499804 0.20395800471 0.20601199567
          -0.021123599261 0.2901929915 -0.037268299609 0.067414298654 0.5 0.05388860032
          0.075165897608 0.5 -0.16578200459 0.20313000679 0.30061998963 0.0047877700999
          -2.3285899162 -0.077071398497 0.5 -2.2944800854 0.10816299915 0.5
          -2.4325098991 0.0032291798852 0.31787699461 -2.1791601181 0.066247500479 0.26825898886
          -2.4325098991 0.0032291798852 0.31787699461 -2.3285899162 -0.077071398497 0.5
          -2.5157299042 -0.098369702697 0.5 -2.2944800854 0.10816299915 0.5
          -0.021123599261 0.2901929915 -0.037268299609 0.057354498655 0.2768329978 0.30196899176
          0.067414298654 0.5 0.05388860032 0.20313000679 0.30061998963 0.0047877700999
          -4.8312702179 -0.5 0.1501930058 -4.6742100716 -0.19076700509 0.15933300555
          -4.5130600929 -0.32579600811 0.18804700673 -4.794549942 -0.32775598764 0.30355900526
          1.7617299557 0.19749200344 -0.18400299549 1.6601899862 0.29914501309 -0.0094896201044
          1.8845000267 0.5 -0.10376700014 1.9183299541 0.30307900906 -0.11740200222
          -4.8312702179 -0.5 0.1501930058 -4.5130600929 -0.32579600811 0.18804700673
          -4.5986700058 -0.5 0.27377399802 -4.794549942 -0.32775598764 0.30355900526
          -4.5578799248 -0.5 0.075488097966 -4.6742100716 -0.19076700509 0.15933300555
          -4.5130600929 -0.32579600811 0.18804700673 -4.8312702179 -0.5 0.1501930058
          -4.5071802139 -0.46488499641 0.5 -4.5459198952 -0.24766799808 0.5
          -4.5986700058 -0.5 0.27377399802 -4.5130600929 -0.32579600811 0.18804700673
          -3.1703898907 -0.28369298577 0.029881799594 -3.353219986 0.018101999536 -0.0069937198423
          -3.4054200649 -0.24873800576 -0.029902800918 -3.1692500114 -0.17956000566 -0.18042400479
          -3.0793800354 -0.5 0.028451299295 -3.1703898907 -0.28369298577 0.029881799594
          -3.3001599312 -0.5 -0.014418800361 -3.1584899426 -0.5 -0.16631600261
          -3.0793800354 -0.5 0.028451299295 -3.1703898907 -0.28369298577 0.029881799594
          -3.2333400249 -0.5 0.24993300438 -3.3001599312 -0.5 -0.014418800361
          3.5264201164 0.5 0.31256499887 3.3330900669 0.5 0.31517699361
          3.353579998 0.25871399045 0.31244799495 3.3437099457 0.5 0.098416596651
          1.4891799688 -0.27188199759 0.26980000734 1.6828099489 -0.15067499876 0.17043499649
          1.7191100121 -0.2926889956 0.013918399811 1.6352499723 -0.5 0.19289499521
          3.5264201164 0.5 0.31256499887 3.3437099457 0.5 0.098416596651
          3.353579998 0.25871399045 0.31244799495 3.541369915 0.5 0.1197900027
          -3.4302499294 -0.5 0.19616499543 -3.2333400249 -0.5 0.24993300438
          -3.2899799347 -0.19551900029 0.21153800189 -3.1703898907 -0.28369298577 0.029881799594
          -3.4302499294 -0.5 0.19616499543 -3.1703898907 -0.28369298577 0.029881799594
          -3.2899799347 -0.19551900029 0.21153800189 -3.3001599312 -0.5 -0.014418800361
          -3.4302499294 -0.5 0.19616499543 -3.2333400249 -0.5 0.24993300438
          -3.1703898907 -0.28369298577 0.029881799594 -3.3001599312 -0.5 -0.014418800361
          3.5255100727 0.5 -0.16535499692 3.803839922 0.5 0.0072177099064
          3.6711499691 0.31469801068 -0.29238000512 3.6093900204 0.31306898594 -0.027008600533
          3.6711499691 0.31469801068 -0.29238000512 3.7566299438 0.15342700481 -0.14512400329
          4.0157899857 0.23598599434 -0.23627699912 3.9046399593 0.029231099412 -0.28819599748
          3.6711499691 0.31469801068 -0.29238000512 3.3973500729 0.5 -0.34653198719
          3.4734098911 0.21108800173 -0.2205349952 3.5376200676 0.42240199447 -0.5
          0.71180897951 0.31379199028 -0.019653400406 0.58821898699 0.5 0.18288999796
          0.56476098299 0.5 -0.044713400304 0.78051799536 0.5 0.18855799735
          1.0404800177 -0.5 0.084503702819 0.92648899555 -0.5 0.31108599901
          0.77794498205 -0.5 0.24261300266 0.89871001244 -0.21273000538 0.19672900438
          4.1333699226 0.29578199983 0.28484800458 4.2926101685 0.022265100852 0.30176800489
          4.3127498627 0.19265699387 0.16710400581 4.0886101723 0.063145399094 0.2613709867
          1.2041200399 0.21308499575 -0.18568199873 1.3415499926 0.046351000667 -0.2966940105
          1.3222500086 0.19783599675 -0.5 1.0963699818 0.18162600696 -0.5
          1.2371799946 0.38177201152 -0.5 1.2041200399 0.21308499575 -0.18568199873
          1.3222500086 0.19783599675 -0.5 1.0963699818 0.18162600696 -0.5
          -0.89532899857 0.5 -0.11820399761 -1.0172100067 0.25485399365 -0.020222399384
          -0.68823200464 0.30021798611 0.030239600688 -0.92764699459 0.27740699053 -0.26456698775
          -0.63264602423 -0.32936599851 0.064718000591 -0.94314199686 -0.25431698561 0.040656600147
          -0.87598198652 -0.27951401472 0.27214699984 -0.91965401173 -0.5 0.069327197969
          -4.0830402374 0.30948498845 -0.29728299379 -4.0616898537 0.31015700102 -0.5
          -3.8989500999 0.24744200706 -0.23554000258 -3.8885200024 0.43526899815 -0.5
          -3.8989500999 0.24744200706 -0.23554000258 -4.0830402374 0.30948498845 -0.29728299379
          -3.8885200024 0.43526899815 -0.5 -3.7526800632 0.5 -0.34413599968
          -1.0172100067 0.25485399365 -0.020222399384 -0.86464500427 0.18405400217 0.1796399951
          -0.68823200464 0.30021798611 0.030239600688 -0.74285399914 0.13776800036 -0.12904399633
          -2.9389500618 -0.039363101125 -0.5 -2.8483600616 -0.1823129952 -0.18523199856
          -3.0114998817 -0.30267500877 -0.29305499792 -3.0681700706 -0.022411899641 -0.31216698885
          -4.5338001251 0.5 0.29403999448 -4.261590004 0.5 0.28367200494
          -4.4328398705 0.5 0.16251300275 -4.4165802002 0.22745400667 0.23878499866
          3.867939949 0.29484701157 -0.023631099612 4.0779399872 0.0020779399201 -0.0058176601306
          4.0157899857 0.23598599434 -0.23627699912 3.8543400764 -0.043197199702 -0.061682298779
          4.0863099098 -0.5 0.17567700148 4.296959877 -0.5 0.12259899825
          4.2311301231 -0.28602001071 0.30712598562 4.3140602112 -0.30338901281 0.040695600212
          -3.6554999352 0.5 -0.12951600552 -3.4697299004 0.28407201171 -0.298379004
          -3.6415400505 0.18903900683 -0.16241000593 -3.5640099049 0.29994499683 -0.013255200349
          -4.6742100716 -0.19076700509 0.15933300555 -4.7982001305 -0.27365100384 -0.020341299474
          -4.8312702179 -0.5 0.1501930058 -4.5578799248 -0.5 0.075488097966
          2.3567500114 -0.5 -0.25275498629 2.2389800549 -0.33469301462 -0.31423199177
          2.1141200066 -0.5 -0.35961300135 2.3412098885 -0.33859500289 -0.5
          -4.439789772 -0.27735000849 -0.054897699505 -4.6199498177 -0.5 -0.060735598207
          -4.5578799248 -0.5 0.075488097966 -4.4352798462 -0.5 -0.094545200467
          -4.4352798462 -0.5 -0.094545200467 -4.5578799248 -0.5 0.075488097966
          -4.439789772 -0.27735000849 -0.054897699505 -4.3720297813 -0.5 0.12119200081
          -2.1403698921 -0.070216402411 0.5 -2.2944800854 0.10816299915 0.5
          -2.3285899162 -0.077071398497 0.5 -2.1791601181 0.066247500479 0.26825898886
          -4.7982001305 -0.27365100384 -0.020341299474 -5 -0.004447159823 0.13623799384
          -4.6742100716 -0.19076700509 0.15933300555 -5 -0.26007699966 0.21836000681
          -5 -0.16616299748 -0.067754097283 -5 -0.004447159823 0.13623799384
          -4.7982001305 -0.27365100384 -0.020341299474 -5 -0.26007699966 0.21836000681
          -5 -0.16616299748 -0.067754097283 -5 -0.39700898528 0.035171099007
          -5 -0.26007699966 0.21836000681 -4.7982001305 -0.27365100384 -0.020341299474
          -5 -0.16616299748 -0.067754097283 -4.9761099815 -0.5 -0.16763499379
          -5 -0.39700898528 0.035171099007 -4.7982001305 -0.27365100384 -0.020341299474
          -5 -0.16616299748 -0.067754097283 -5 -0.33370301127 -0.29875099659
          -4.9761099815 -0.5 -0.16763499379 -4.7982001305 -0.27365100384 -0.020341299474
          1.0750000477 -0.14948399365 0.12495800108 0.96319800615 -0.25574100018 -0.086030602455
          0.89871001244 -0.21273000538 0.19672900438 1.1665500402 -0.30232200027 0.032807700336
          -5 -0.16616299748 -0.067754097283 -4.7836899757 -0.0049985698424 -0.0062314402312
          -4.6675601006 -0.16073800623 -0.17753699422 -4.7982001305 -0.27365100384 -0.020341299474
          -5 -0.16616299748 -0.067754097283 -5 -0.004447159823 0.13623799384
          -4.7836899757 -0.0049985698424 -0.0062314402312 -4.7982001305 -0.27365100384 -0.020341299474
          -4.7836899757 -0.0049985698424 -0.0062314402312 -5 -0.004447159823 0.13623799384
          -4.6742100716 -0.19076700509 0.15933300555 -4.7982001305 -0.27365100384 -0.020341299474
          3.6228199005 0.064896397293 -0.30187800527 3.6606800556 0.057222399861 0.047008000314
          3.7566299438 0.15342700481 -0.14512400329 3.6450901031 -0.17131699622 -0.19211299717
          -4.7982001305 -0.27365100384 -0.020341299474 -5 -0.39700898528 0.035171099007
          -5 -0.26007699966 0.21836000681 -4.8312702179 -0.5 0.1501930058
          -2.3032701015 -0.32206401229 -0.5 -2.0815498829 -0.33450999856 -0.28891399503
          -2.2273199558 -0.5 -0.24430799484 -2.2611498833 -0.21604500711 -0.31563100219
          -2.2438600063 -0.050747901201 -0.5 -2.1227400303 -0.27935901284 -0.5
          -2.2611498833 -0.21604500711 -0.31563100219 -2.0386500359 -0.018439799547 -0.5
          -2.2611498833 -0.21604500711 -0.31563100219 -2.2273199558 -0.5 -0.24430799484
          -2.3032701015 -0.32206401229 -0.5 -2.461810112 -0.5 -0.23160800338
          -2.8269600868 0.33847901225 0.099728599191 -2.6367399693 0.26534798741 0.078260503709
          -2.7622299194 0.5 0.0010923099471 -2.8308598995 0.31636199355 -0.103422001
          -2.3032701015 -0.32206401229 -0.5 -2.1227400303 -0.27935901284 -0.5
          -2.0815498829 -0.33450999856 -0.28891399503 -2.2611498833 -0.21604500711 -0.31563100219
          -1.3727099895 0.30601900816 0.28291600943 -1.45697999 0.29096999764 0.5
          -1.174579978 0.41473001242 0.5 -1.241230011 0.18273699284 0.5
          -1.3727099895 0.30601900816 0.28291600943 -1.3363499641 0.5 0.056991901249
          -1.1475800276 0.23044300079 0.22876000404 -1.2430000305 0.5 0.28215000033
          1.9551000595 0.040498699993 0.28340399265 2.0954899788 -0.062455501407 0.5
          2.2194900513 -0.0036427800078 0.3248629868 2.1778399944 -0.17710599303 0.19188399613
          4.3579602242 -0.5 -0.20988300443 4.1566100121 -0.27463600039 -0.28568801284
          4.4999699593 -0.30107301474 -0.267922014 4.3278198242 -0.19421100616 -0.1541839987
          4.3278198242 -0.19421100616 -0.1541839987 4.1762099266 -0.5 -0.073627002537
          4.3579602242 -0.5 -0.20988300443 4.1566100121 -0.27463600039 -0.28568801284
          2.2021598816 0.01178739965 -0.018270699307 2.1778399944 -0.17710599303 0.19188399613
          2.2194900513 -0.0036427800078 0.3248629868 2.4395799637 -0.026134699583 0.038382198662
          -2.0675001144 -0.32273799181 0.069159403443 -2.187210083 -0.061865199357 0.039609499276
          -2.2719900608 -0.32766199112 0.080448098481 -2.1942100525 -0.27436101437 -0.10729199648
          3.4722599983 -0.22174499929 0.20733100176 3.4012000561 -0.17302200198 0.5
          3.678839922 -0.28315201402 0.29635599256 3.4452700615 -0.38378500938 0.5
          3.678839922 -0.28315201402 0.29635599256 3.4012000561 -0.17302200198 0.5
          3.7090001106 -0.1736509949 0.5 3.4452700615 -0.38378500938 0.5
          1.8100399971 -0.5 -0.073667302728 1.8699899912 -0.30787700415 -0.26772201061
          1.8518699408 -0.5 -0.39846301079 1.9810800552 -0.5 -0.19643999636
          -0.012120299973 -0.32062399387 0.28174200654 -0.10501199961 -0.31161299348 0.5
          -0.16431899369 -0.5 0.31346601248 -0.29698100686 -0.33138298988 0.28727200627
          -1.1475800276 0.23044300079 0.22876000404 -1.3727099895 0.30601900816 0.28291600943
          -1.29381001 0.12503300607 0.31571400166 -1.4028999805 0.13422000408 0.12791000307
          4.5424098969 -0.083453699946 0.5 4.7622699738 -0.21942800283 0.5
          4.6710700989 -0.19623799622 0.19057400525 4.4824900627 -0.2778429985 0.28902798891
          2.4428100586 0.10961800069 0.26388600469 2.6219000816 -0.015453300439 0.30282199383
          2.4395799637 -0.026134699583 0.038382198662 2.4458899498 -0.25059598684 0.23923400044
          2.9353599548 0.054025001824 0.25657498837 2.8473100662 0.22374899685 0.5
          2.6219000816 -0.015453300439 0.30282199383 2.6889400482 0.16072399914 0.18579299748
          2.6219000816 -0.015453300439 0.30282199383 2.7103700638 -0.17533199489 0.17696000636
          2.9353599548 0.054025001824 0.25657498837 2.6889400482 0.16072399914 0.18579299748
          -1.7309900522 0.022700900212 -0.2696749866 -1.6108299494 0.078509502113 -0.5
          -1.5251499414 -0.076651901007 -0.31482899189 -1.4892100096 0.17613700032 -0.19808200002
          -1.6108299494 0.078509502113 -0.5 -1.6403199434 -0.1704210043 -0.5
          -1.7309900522 0.022700900212 -0.2696749866 -1.5251499414 -0.076651901007 -0.31482899189
          -1.6108299494 0.078509502113 -0.5 -1.6403199434 -0.1704210043 -0.5
          -1.5251499414 -0.076651901007 -0.31482899189 -1.3918299675 -0.029553499073 -0.5
          4.7622699738 -0.21942800283 0.5 4.6142997742 -0.33187198639 0.5
          4.6710700989 -0.19623799622 0.19057400525 4.4824900627 -0.2778429985 0.28902798891
          -1.5232800245 0.099855400622 0.30515301228 -1.8168400526 0.14203999937 0.32622399926
          -1.6999100447 -0.016917800531 0.25771600008 -1.6647800207 0.24374599755 0.22540199757
          -1.8168400526 0.14203999937 0.32622399926 -1.9560199976 0.18910500407 0.17773799598
          -1.6647800207 0.24374599755 0.22540199757 -1.8121700287 0.32682698965 0.085832998157
          -0.92764699459 0.27740699053 -0.26456698775 -0.96304500103 0.042934101075 -0.20367699862
          -0.74285399914 0.13776800036 -0.12904399633 -0.7856760025 -0.061230801046 -0.29652500153
          -2.6140599251 -0.2892279923 0.31681698561 -2.7625899315 -0.27350199223 0.5
          -2.9220399857 -0.26491099596 0.30408999324 -2.7145900726 -0.082542397082 0.279302001
          -2.5157299042 -0.098369702697 0.5 -2.7625899315 -0.27350199223 0.5
          -2.6140599251 -0.2892279923 0.31681698561 -2.7145900726 -0.082542397082 0.279302001
          -2.3735599518 -0.0037444499321 -0.31686800718 -2.2438600063 -0.050747901201 -0.5
          -2.1682898998 -0.037599701434 -0.23476999998 -2.1926898956 0.17790399492 -0.5
          -2.5157299042 -0.098369702697 0.5 -2.6140599251 -0.2892279923 0.31681698561
          -2.4707000256 -0.30024200678 0.5 -2.4500799179 -0.18146699667 0.1914049983
          -2.5157299042 -0.098369702697 0.5 -2.7625899315 -0.27350199223 0.5
          -2.4707000256 -0.30024200678 0.5 -2.6140599251 -0.2892279923 0.31681698561
          3.4506099224 -0.25270500779 -0.04623780027 3.4346001148 0.010584499687 0.0013051299611
          3.6606800556 0.057222399861 0.047008000314 3.6328399181 -0.30484598875 0.056098300964
          -1.3521399498 -0.29692700505 -0.29181501269 -1.3853499889 -0.5 -0.1261779964
          -1.1987999678 -0.5 -0.10932199657 -1.2733399868 -0.5 -0.29207199812
          -4.0945601463 -0.28051298857 0.31798601151 -4.237349987 -0.30583998561 0.5
          -4.0954899788 -0.1243320033 0.5 -3.9475998878 -0.42686000466 0.5
          -4.0945601463 -0.28051298857 0.31798601151 -4.0954899788 -0.1243320033 0.5
          -3.8706200123 -0.17432299256 0.5 -3.9475998878 -0.42686000466 0.5
          -4.0945601463 -0.28051298857 0.31798601151 -4.0954899788 -0.1243320033 0.5
          -4.0238199234 -0.033451199532 0.28527000546 -3.8706200123 -0.17432299256 0.5
          -1.3521399498 -0.29692700505 -0.29181501269 -1.2733399868 -0.5 -0.29207199812
          -1.1352299452 -0.30921301246 -0.27610599995 -1.2095999718 -0.31749498844 -0.5
          -4.0945601463 -0.28051298857 0.31798601151 -4.237349987 -0.30583998561 0.5
          -3.9475998878 -0.42686000466 0.5 -4.1482901573 -0.5 0.45363500714
          3.4506099224 -0.25270500779 -0.04623780027 3.6606800556 0.057222399861 0.047008000314
          3.6450901031 -0.17131699622 -0.19211299717 3.6328399181 -0.30484598875 0.056098300964
          0.25244501233 -0.012676700018 0.29410201311 0.2923809886 -0.092951200902 0.5
          0.46630200744 0.046083901078 0.25881299376 0.47176000476 -0.12052799761 0.5
          -1.4628200531 0.5 -0.09861010313 -1.7420699596 0.2584669888 -0.11043199897
          -1.6142400503 0.5 0.032841600478 -1.5486299992 0.27752000093 0.017110800371
          3.4734098911 0.21108800173 -0.2205349952 3.1808700562 0.17408800125 -0.17278499901
          3.2905800343 0.095524303615 -0.3324739933 3.2970399857 0.30501198769 -0.2939350009
          3.1624600887 -0.015569499694 -0.02179059945 3.1808700562 0.17408800125 -0.17278499901
          3.120470047 -0.021967599168 -0.27757799625 3.2905800343 0.095524303615 -0.3324739933
          3.1624600887 -0.015569499694 -0.02179059945 3.2905800343 0.095524303615 -0.3324739933
          3.120470047 -0.021967599168 -0.27757799625 3.4302000999 -0.042014900595 -0.25968700647
          3.2905800343 0.095524303615 -0.3324739933 3.2461500168 0.28882101178 -0.5
          3.0909199715 0.094946503639 -0.5 3.2644200325 -0.026787700132 -0.5
          -4.794549942 -0.32775598764 0.30355900526 -4.8936700821 -0.25269600749 0.5
          -5 -0.12896800041 0.37591099739 -4.8052501678 -0.030253799632 0.27854898572
          -4.794549942 -0.32775598764 0.30355900526 -4.7982001305 -0.27365100384 -0.020341299474
          -5 -0.26007699966 0.21836000681 -4.8312702179 -0.5 0.1501930058
          3.4120700359 0.12526200712 -0.5 3.4734098911 0.21108800173 -0.2205349952
          3.6228199005 0.064896397293 -0.30187800527 3.4302000999 -0.042014900595 -0.25968700647
          -4.7461600304 -0.5 -0.23019599915 -5 -0.33370301127 -0.29875099659
          -4.9761099815 -0.5 -0.16763499379 -4.7598800659 -0.5 -0.39154198766
          4.4999699593 -0.30107301474 -0.267922014 4.6962199211 -0.21809899807 -0.17522199452
          4.5304999352 -0.5 -0.15178099275 4.5181698799 -0.25569599867 -0.00080205698032
          4.5256800652 -0.098457798362 -0.5 4.737279892 -0.20036800206 -0.5
          4.4999699593 -0.30107301474 -0.267922014 4.6962199211 -0.21809899807 -0.17522199452
          4.5256800652 -0.098457798362 -0.5 4.737279892 -0.20036800206 -0.5
          4.4887499809 -0.30371600389 -0.5 4.4999699593 -0.30107301474 -0.267922014
          1.9245300293 -0.27816799283 0.073713801801 1.8764899969 -0.15924200416 -0.081890702248
          2.0873699188 -0.15330499411 0.011435699649 1.8789199591 -0.10240700096 0.16247299314
          4.4281401634 -0.5 -0.37787801027 4.4887499809 -0.30371600389 -0.5
          4.6661100388 -0.5 -0.39997300506 4.4999699593 -0.30107301474 -0.267922014
          -0.47073799372 -0.22246700525 0.21898700297 -0.40286201239 -0.0046954802237 -0.0054140798748
          -0.53887498379 -0.034443799406 0.20534600317 -0.53925698996 -0.14979499578 0.041408799589
          -0.47073799372 -0.22246700525 0.21898700297 -0.53887498379 -0.034443799406 0.20534600317
          -0.74051898718 -0.13983599842 0.1276730001 -0.53925698996 -0.14979499578 0.041408799589
          4.8058700562 0.17079499364 -0.0053127701394 4.7025499344 0.19734199345 0.20103999972
          5 0.029062800109 0.15694400668 4.794479847 -0.0099189598113 0.26575800776
          -0.53925698996 -0.14979499578 0.041408799589 -0.53887498379 -0.034443799406 0.20534600317
          -0.74051898718 -0.13983599842 0.1276730001 -0.62403798103 0.035430200398 0.037675399333
          -1.8209400177 0.5 0.2201499939 -1.6647800207 0.24374599755 0.22540199757
          -1.6142400503 0.5 0.032841600478 -1.8121700287 0.32682698965 0.085832998157
          -1.3192800283 -0.11339899898 0.070827797055 -1.3964400291 -0.3062709868 0.030771600083
          -1.5302300453 -0.20296399295 0.1751369983 -1.3444800377 -0.30236798525 0.28137201071
          -1.8209400177 0.5 0.2201499939 -1.8121700287 0.32682698965 0.085832998157
          -1.6142400503 0.5 0.032841600478 -1.8758599758 0.5 -0.063933096826
          4.7124700546 0.20787400007 -0.21475000679 5 0.16910900176 -0.16435900331
          4.7696099281 -0.016697799787 -0.29300200939 4.8058700562 0.17079499364 -0.0053127701394
          4.7124700546 0.20787400007 -0.21475000679 4.7696099281 -0.016697799787 -0.29300200939
          4.7783799171 -0.058915100992 0.015639599413 4.8058700562 0.17079499364 -0.0053127701394
          4.8058700562 0.17079499364 -0.0053127701394 4.7696099281 -0.016697799787 -0.29300200939
          4.7783799171 -0.058915100992 0.015639599413 5 0.040265500546 -0.029345599934
          4.7696099281 -0.016697799787 -0.29300200939 4.8058700562 0.17079499364 -0.0053127701394
          5 -0.025442499667 -0.21136300266 5 0.040265500546 -0.029345599934
          4.7696099281 -0.016697799787 -0.29300200939 5 0.16910900176 -0.16435900331
          5 -0.025442499667 -0.21136300266 4.8058700562 0.17079499364 -0.0053127701394
          4.8058700562 0.17079499364 -0.0053127701394 5 0.16910900176 -0.16435900331
          5 -0.025442499667 -0.21136300266 5 0.040265500546 -0.029345599934
          4.8058700562 0.17079499364 -0.0053127701394 5 0.29265201092 0.032442100346
          5 0.16910900176 -0.16435900331 5 0.040265500546 -0.029345599934
          -0.63522601128 -0.32412400842 -0.5 -0.77074998617 -0.30250000954 -0.3132340014
          -0.59533298016 -0.13490399718 -0.5 -0.47420999408 -0.29338499904 -0.29220598936
          -4.0346798897 -0.02448659949 -0.29127898812 -3.9185600281 -0.21505500376 -0.20922599733
          -4.2221798897 -0.17677399516 -0.20671699941 -4.0997099876 -0.04042249918 -0.065122202039
          -4.0346798897 -0.02448659949 -0.29127898812 -3.9185600281 -0.21505500376 -0.20922599733
          -4.0997099876 -0.04042249918 -0.065122202039 -3.8818199635 0.0094203203917 -0.0044903801754
          -2.4091000557 0.010666499846 0.010404500179 -2.187210083 -0.061865199357 0.039609499276
          -2.4208400249 -0.17098300159 -0.17608100176 -2.4605801105 -0.31329700351 0.0017525800504
          -2.4208400249 -0.17098300159 -0.17608100176 -2.1942100525 -0.27436101437 -0.10729199648
          -2.461810112 -0.5 -0.23160800338 -2.4605801105 -0.31329700351 0.0017525800504
          -2.4208400249 -0.17098300159 -0.17608100176 -2.6132099628 -0.29757499695 -0.26779401302
          -2.4605801105 -0.31329700351 0.0017525800504 -2.461810112 -0.5 -0.23160800338
          -2.6132099628 -0.29757499695 -0.26779401302 -2.7003099918 -0.5 -0.15431599319
          -2.4605801105 -0.31329700351 0.0017525800504 -2.461810112 -0.5 -0.23160800338
          -2.4605801105 -0.31329700351 0.0017525800504 -2.7003099918 -0.5 -0.15431599319
          -2.5808300972 -0.5 0.066097401083 -2.461810112 -0.5 -0.23160800338
          -2.32543993 -0.5 -0.016557699069 -2.4605801105 -0.31329700351 0.0017525800504
          -2.5808300972 -0.5 0.066097401083 -2.461810112 -0.5 -0.23160800338
          -2.4605801105 -0.31329700351 0.0017525800504 -2.1942100525 -0.27436101437 -0.10729199648
          -2.461810112 -0.5 -0.23160800338 -2.32543993 -0.5 -0.016557699069
          0.69335997105 0.13933600485 0.14205299318 0.58827602863 -0.023083500564 0.03204099834
          0.80673497915 0.05526150018 -0.040332399309 0.58461797237 0.18660899997 -0.17640599608
          0.29461199045 -0.27944099903 -0.5 0.1349440068 -0.5 -0.49112400413
          0.27028900385 -0.5 -0.35754400492 0.39225000143 -0.46847999096 -0.5
          -2.4500799179 -0.18146699667 0.1914049983 -2.6140599251 -0.2892279923 0.31681698561
          -2.4806699753 -0.5 0.25502499938 -2.4605801105 -0.31329700351 0.0017525800504
          -2.4500799179 -0.18146699667 0.1914049983 -2.6965899467 -0.25478899479 0.070601798594
          -2.6140599251 -0.2892279923 0.31681698561 -2.4605801105 -0.31329700351 0.0017525800504
          3.6032299995 -0.0550327003 0.29886201024 3.4722599983 -0.22174499929 0.20733100176
          3.3886699677 0.01943529956 0.25713300705 3.4012000561 -0.17302200198 0.5
          3.4722599983 -0.22174499929 0.20733100176 3.4012000561 -0.17302200198 0.5
          3.6032299995 -0.0550327003 0.29886201024 3.678839922 -0.28315201402 0.29635599256
          0.71180897951 0.31379199028 -0.019653400406 0.80673497915 0.05526150018 -0.040332399309
          0.96667098999 0.22423000634 0.21116599441 0.89332699776 0.23076300323 -0.16234900057
          0.71180897951 0.31379199028 -0.019653400406 0.80673497915 0.05526150018 -0.040332399309
          0.89332699776 0.23076300323 -0.16234900057 0.58461797237 0.18660899997 -0.17640599608
          0.71180897951 0.31379199028 -0.019653400406 0.69335997105 0.13933600485 0.14205299318
          0.80673497915 0.05526150018 -0.040332399309 0.58461797237 0.18660899997 -0.17640599608
          -2.3618400097 -0.32881900668 0.3184300065 -2.4605801105 -0.31329700351 0.0017525800504
          -2.4806699753 -0.5 0.25502499938 -2.2719900608 -0.32766199112 0.080448098481
          2.4395799637 -0.026134699583 0.038382198662 2.1778399944 -0.17710599303 0.19188399613
          2.2194900513 -0.0036427800078 0.3248629868 2.4458899498 -0.25059598684 0.23923400044
          1.7617299557 0.19749200344 -0.18400299549 1.9183299541 0.30307900906 -0.11740200222
          2.0588099957 0.16667899489 -0.072469100356 1.9567300081 0.0023706499487 0.0081458101049
          2.966039896 0.21264900267 0.13400100172 3.1800200939 0.15828900039 0.1766680032
          2.9201900959 0.0039753098972 -0.016150400043 2.9353599548 0.054025001824 0.25657498837
          0.80673497915 0.05526150018 -0.040332399309 1.0667099953 0.30986699462 -0.00099666800816
          0.89332699776 0.23076300323 -0.16234900057 1.0260499716 0.011771400459 0.016185000539
          2.4597499371 -0.30076900125 -0.3059630096 2.3567500114 -0.5 -0.25275498629
          2.6179599762 -0.5 -0.39742100239 2.3412098885 -0.33859500289 -0.5
          -2.3742499352 0.16180799901 -0.16647900641 -2.3735599518 -0.0037444499321 -0.31686800718
          -2.6364200115 -0.0513737984 -0.25086298585 -2.4091000557 0.010666499846 0.010404500179
          2.4389500618 -0.2577829957 -0.080456696451 2.5833399296 -0.5 -0.06280399859
          2.4597499371 -0.30076900125 -0.3059630096 2.3567500114 -0.5 -0.25275498629
          4.0967798233 -0.21491999924 -0.5 3.9538800716 -0.19349299371 -0.21224999428
          4.1566100121 -0.01251959987 -0.28246301413 4.1566100121 -0.27463600039 -0.28568801284
          4.0967798233 -0.21491999924 -0.5 4.1566100121 -0.01251959987 -0.28246301413
          4.3206100464 -0.13641299307 -0.5 4.1566100121 -0.27463600039 -0.28568801284
          4.0967798233 -0.21491999924 -0.5 4.3206100464 -0.13641299307 -0.5
          4.2686200142 -0.36589500308 -0.5 4.1566100121 -0.27463600039 -0.28568801284
          4.2686200142 -0.36589500308 -0.5 4.4999699593 -0.30107301474 -0.267922014
          4.1566100121 -0.27463600039 -0.28568801284 4.3206100464 -0.13641299307 -0.5
          1.8789199591 -0.10240700096 0.16247299314 1.7191100121 -0.2926889956 0.013918399811
          1.9245300293 -0.27816799283 0.073713801801 1.8764899969 -0.15924200416 -0.081890702248
          1.8100399971 -0.5 -0.073667302728 1.8764899969 -0.15924200416 -0.081890702248
          2.0320599079 -0.29999300838 -0.11793000251 1.9245300293 -0.27816799283 0.073713801801
          4.1160001755 -0.25597798824 -0.023964699358 4.1762099266 -0.5 -0.073627002537
          4.1566100121 -0.27463600039 -0.28568801284 4.0018801689 -0.5 -0.21358500421
          4.1566100121 -0.27463600039 -0.28568801284 4.1762099266 -0.5 -0.073627002537
          4.2013001442 -0.5 -0.3026599884 4.0018801689 -0.5 -0.21358500421
          4.0595002174 -0.45859000087 -0.5 4.1566100121 -0.27463600039 -0.28568801284
          4.2013001442 -0.5 -0.3026599884 4.0018801689 -0.5 -0.21358500421
          3.099050045 -0.07797460258 -0.5 3.0909199715 0.094946503639 -0.5
          3.2644200325 -0.026787700132 -0.5 3.120470047 -0.021967599168 -0.27757799625
          3.099050045 -0.07797460258 -0.5 3.0909199715 0.094946503639 -0.5
          3.120470047 -0.021967599168 -0.27757799625 2.9223198891 0.00037304600119 -0.5
          3.099050045 -0.07797460258 -0.5 3.120470047 -0.021967599168 -0.27757799625
          2.8999099731 0.041673701257 -0.29681798816 2.9223198891 0.00037304600119 -0.5
          3.099050045 -0.07797460258 -0.5 2.8999099731 0.041673701257 -0.29681798816
          3.120470047 -0.021967599168 -0.27757799625 2.9589400291 -0.2156240046 -0.5
          -4.1423802376 -0.18350799382 0.11192400008 -4.0945601463 -0.28051298857 0.31798601151
          -4.0987300873 -0.5 0.24074499309 -4.2715802193 -0.32873600721 0.20494799316
          3.120470047 -0.021967599168 -0.27757799625 2.8999099731 0.041673701257 -0.29681798816
          2.9524600506 -0.22408300638 -0.21185599267 2.9589400291 -0.2156240046 -0.5
          2.8999099731 0.041673701257 -0.29681798816 2.9524600506 -0.22408300638 -0.21185599267
          2.9201900959 0.0039753098972 -0.016150400043 3.120470047 -0.021967599168 -0.27757799625
          3.120470047 -0.021967599168 -0.27757799625 2.9524600506 -0.22408300638 -0.21185599267
          2.9201900959 0.0039753098972 -0.016150400043 3.1624600887 -0.015569499694 -0.02179059945
          3.120470047 -0.021967599168 -0.27757799625 3.0909199715 0.094946503639 -0.5
          2.8999099731 0.041673701257 -0.29681798816 2.9223198891 0.00037304600119 -0.5
          3.2362499237 -0.1912920028 -0.17273800075 3.1624600887 -0.015569499694 -0.02179059945
          3.18708992 -0.32281601429 -0.009787529707 2.94404006 -0.24824899435 0.048307999969
          4.6531600952 0.31911000609 0.5 4.6767001152 0.5 0.46980398893
          4.8042798042 0.5 0.31367200613 4.8295898438 0.25321400166 0.5
          -3.8897199631 -0.5 0.01333339978 -4.0987300873 -0.5 0.24074499309
          -4.022600174 -0.31765198708 -0.031538199633 -3.8883500099 -0.22696000338 0.22436200082
          -4.022600174 -0.31765198708 -0.031538199633 -4.0987300873 -0.5 0.24074499309
          -3.8897199631 -0.5 0.01333339978 -4.2580599785 -0.5 -0.032561998814
          -4.0541300774 -0.5 -0.16820600629 -4.022600174 -0.31765198708 -0.031538199633
          -3.8897199631 -0.5 0.01333339978 -4.2580599785 -0.5 -0.032561998814
          -4.022600174 -0.31765198708 -0.031538199633 -3.8106400967 -0.5 -0.18066500127
          -4.0541300774 -0.5 -0.16820600629 -3.8897199631 -0.5 0.01333339978
          -4.022600174 -0.31765198708 -0.031538199633 -3.8883500099 -0.22696000338 0.22436200082
          -4.0945601463 -0.28051298857 0.31798601151 -4.1423802376 -0.18350799382 0.11192400008
          -4.022600174 -0.31765198708 -0.031538199633 -3.8818199635 0.0094203203917 -0.0044903801754
          -3.8883500099 -0.22696000338 0.22436200082 -4.1423802376 -0.18350799382 0.11192400008
          -4.1423802376 -0.18350799382 0.11192400008 -3.8818199635 0.0094203203917 -0.0044903801754
          -4.0997099876 -0.04042249918 -0.065122202039 -4.022600174 -0.31765198708 -0.031538199633
          -2.0332100391 0.28143399954 0.34608799219 -2.2189500332 0.32305899262 0.5
          -2.1011199951 0.16092300415 0.5 -2.2191998959 0.31082698703 0.26025301218
          -4.022600174 -0.31765198708 -0.031538199633 -4.0997099876 -0.04042249918 -0.065122202039
          -4.2221798897 -0.17677399516 -0.20671699941 -3.9185600281 -0.21505500376 -0.20922599733
          -4.022600174 -0.31765198708 -0.031538199633 -3.8818199635 0.0094203203917 -0.0044903801754
          -4.0997099876 -0.04042249918 -0.065122202039 -3.9185600281 -0.21505500376 -0.20922599733
          -3.9185600281 -0.21505500376 -0.20922599733 -3.8818199635 0.0094203203917 -0.0044903801754
          -3.7506599426 -0.28654700518 -0.026961300522 -4.022600174 -0.31765198708 -0.031538199633
          -3.7506599426 -0.28654700518 -0.026961300522 -3.8818199635 0.0094203203917 -0.0044903801754
          -3.8883500099 -0.22696000338 0.22436200082 -4.022600174 -0.31765198708 -0.031538199633
          -4.8403701782 0.49637499452 0.5 -5 0.3144119978 0.46769100428
          -4.7492098808 0.3132250011 0.5 -4.7674899101 0.33730000257 0.27226099372
          -4.8403701782 0.49637499452 0.5 -5 0.3144119978 0.46769100428
          -4.7674899101 0.33730000257 0.27226099372 -4.9243597984 0.5 0.31349301338
          2.2021598816 0.01178739965 -0.018270699307 2.1815600395 -0.001020470052 -0.32536798716
          2.0588099957 0.16667899489 -0.072469100356 1.9453500509 -0.087545797229 -0.2573390007
          -4.6425299644 0.5 0.1688580066 -4.9243597984 0.5 0.31349301338
          -4.7674899101 0.33730000257 0.27226099372 -4.8486700058 0.5 0.11407999694
          -4.8486700058 0.5 0.11407999694 -4.765540123 0.29459398985 -0.015708299354
          -4.7674899101 0.33730000257 0.27226099372 -4.6425299644 0.5 0.1688580066
          -4.7674899101 0.33730000257 0.27226099372 -4.765540123 0.29459398985 -0.015708299354
          -4.8486700058 0.5 0.11407999694 -5 0.28975299001 0.088944099844
          -5 0.32793700695 0.27663400769 -4.7674899101 0.33730000257 0.27226099372
          -4.8486700058 0.5 0.11407999694 -5 0.28975299001 0.088944099844
          -4.6812400818 0.14698000252 0.1767770052 -4.765540123 0.29459398985 -0.015708299354
          -4.7674899101 0.33730000257 0.27226099372 -5 0.28975299001 0.088944099844
          -4.765540123 0.29459398985 -0.015708299354 -4.5506501198 0.30194398761 0.066922001541
          -4.6812400818 0.14698000252 0.1767770052 -4.7674899101 0.33730000257 0.27226099372
          -4.765540123 0.29459398985 -0.015708299354 -4.5506501198 0.30194398761 0.066922001541
          -4.7674899101 0.33730000257 0.27226099372 -4.6425299644 0.5 0.1688580066
          -4.6675601006 -0.16073800623 -0.17753699422 -4.6199498177 -0.5 -0.060735598207
          -4.7982001305 -0.27365100384 -0.020341299474 -4.439789772 -0.27735000849 -0.054897699505
          -2.5539898872 0.16441999376 -0.075327299535 -2.6850099564 0.20022499561 -0.22423900664
          -2.4949100018 0.29038199782 -0.30940899253 -2.6490800381 0.5 -0.17990100384
          -4.7674899101 0.33730000257 0.27226099372 -4.9243597984 0.5 0.31349301338
          -5 0.32793700695 0.27663400769 -4.8486700058 0.5 0.11407999694
          1.1168500185 -0.49917200208 -0.5 1.0735499859 -0.2803800106 -0.2859480083
          0.93736201525 -0.5 -0.41163700819 1.0077899694 -0.3314499855 -0.5
          1.1912800074 -0.33144798875 -0.5 1.0735499859 -0.2803800106 -0.2859480083
          1.1168500185 -0.49917200208 -0.5 1.0077899694 -0.3314499855 -0.5
          1.1912800074 -0.33144798875 -0.5 1.0735499859 -0.2803800106 -0.2859480083
          1.0077899694 -0.3314499855 -0.5 1.0786999464 -0.15874500573 -0.5
          1.0077899694 -0.3314499855 -0.5 1.0735499859 -0.2803800106 -0.2859480083
          0.89200401306 -0.15874500573 -0.5 1.0786999464 -0.15874500573 -0.5
          1.0077899694 -0.3314499855 -0.5 0.82210099697 -0.27426099777 -0.29057401419
          0.89200401306 -0.15874500573 -0.5 1.0735499859 -0.2803800106 -0.2859480083
          1.0077899694 -0.3314499855 -0.5 1.0735499859 -0.2803800106 -0.2859480083
          0.93736201525 -0.5 -0.41163700819 0.82210099697 -0.27426099777 -0.29057401419
          1.0735499859 -0.2803800106 -0.2859480083 1.0327399969 -0.5 -0.23253199458
          0.93736201525 -0.5 -0.41163700819 0.82210099697 -0.27426099777 -0.29057401419
          -3.8897199631 -0.5 0.01333339978 -3.7200200558 -0.5 0.14442199469
          -3.7506599426 -0.28654700518 -0.026961300522 -3.5598199368 -0.5 0.038439199328
          -2.9389500618 -0.039363101125 -0.5 -2.9157800674 -0.27548700571 -0.5
          -3.1430599689 -0.16607600451 -0.5 -3.0114998817 -0.30267500877 -0.29305499792
          -2.9157800674 -0.27548700571 -0.5 -3.1973099709 -0.4143140018 -0.5
          -3.1430599689 -0.16607600451 -0.5 -3.0114998817 -0.30267500877 -0.29305499792
          0.89871001244 -0.21273000538 0.19672900438 0.87731397152 0.049460299313 0.15210199356
          0.76386100054 -0.10622999817 0.089437901974 1.0260499716 0.011771400459 0.016185000539
          3.1475300789 -0.43508601189 -0.5 3.2248399258 -0.5 -0.3111949861
          3.023360014 -0.5 -0.32725200057 3.1227400303 -0.30917099118 -0.31313300133
          2.9336800575 -0.44553801417 -0.5 3.023360014 -0.5 -0.32725200057
          3.1227400303 -0.30917099118 -0.31313300133 3.1475300789 -0.43508601189 -0.5
          3.2248399258 -0.5 -0.3111949861 3.1227400303 -0.30917099118 -0.31313300133
          3.0969901085 -0.5 -0.1024639979 3.023360014 -0.5 -0.32725200057
          2.9336800575 -0.44553801417 -0.5 3.1227400303 -0.30917099118 -0.31313300133
          2.9589400291 -0.2156240046 -0.5 3.1475300789 -0.43508601189 -0.5
          -3.7612600327 0.27116200328 0.015408799984 -3.6415400505 0.18903900683 -0.16241000593
          -3.8818199635 0.0094203203917 -0.0044903801754 -3.5974299908 0.015700999647 0.0042460002005
          2.9283499718 0.5 0.14330999553 2.8604700565 0.28147599101 -0.024887500331
          2.8141000271 0.33296000957 0.21601100266 2.966039896 0.21264900267 0.13400100172
          2.3215301037 -0.5 0.19653899968 2.0752000809 -0.5 0.1838440001
          2.1369900703 -0.5 -0.054951798171 2.2314100266 -0.30056801438 0.0065283500589
          2.2314100266 -0.30056801438 0.0065283500589 2.0752000809 -0.5 0.1838440001
          2.1369900703 -0.5 -0.054951798171 1.9245300293 -0.27816799283 0.073713801801
          -4.500120163 0.30916801095 -0.29975399375 -4.6261501312 0.17262099683 -0.1935839951
          -4.3864398003 0.25989100337 -0.089046299458 -4.4012899399 0.03873860091 -0.27101901174
          -4.7795901299 0.30410701036 -0.28243198991 -4.8520002365 0.4750970006 -0.5
          -4.9698600769 0.27387401462 -0.5 -4.7695999146 0.26816898584 -0.5
          -4.7695999146 0.26816898584 -0.5 -4.9698600769 0.27387401462 -0.5
          -4.7795901299 0.30410701036 -0.28243198991 -5 0.09418129921 -0.34129801393
          2.1778399944 -0.17710599303 0.19188399613 2.4395799637 -0.026134699583 0.038382198662
          2.2021598816 0.01178739965 -0.018270699307 2.2314100266 -0.30056801438 0.0065283500589
          2.1778399944 -0.17710599303 0.19188399613 2.4395799637 -0.026134699583 0.038382198662
          2.2314100266 -0.30056801438 0.0065283500589 2.4458899498 -0.25059598684 0.23923400044
          2.2314100266 -0.30056801438 0.0065283500589 2.4395799637 -0.026134699583 0.038382198662
          2.4389500618 -0.2577829957 -0.080456696451 2.4458899498 -0.25059598684 0.23923400044
          2.2314100266 -0.30056801438 0.0065283500589 2.4395799637 -0.026134699583 0.038382198662
          2.2021598816 0.01178739965 -0.018270699307 2.4389500618 -0.2577829957 -0.080456696451
          -0.86464500427 0.18405400217 0.1796399951 -0.74285399914 0.13776800036 -0.12904399633
          -0.62403798103 0.035430200398 0.037675399333 -0.68823200464 0.30021798611 0.030239600688
          0.37961798906 -0.27483201027 0.3045360148 0.2923809886 -0.092951200902 0.5
          0.25244501233 -0.012676700018 0.29410201311 0.47176000476 -0.12052799761 0.5
          -2.6441700459 0.0031107501127 0.0051095401868 -2.8483600616 -0.1823129952 -0.18523199856
          -2.6965899467 -0.25478899479 0.070601798594 -2.6087799072 -0.18399499357 -0.098889403045
          -2.6441700459 0.0031107501127 0.0051095401868 -2.6087799072 -0.18399499357 -0.098889403045
          -2.6965899467 -0.25478899479 0.070601798594 -2.4500799179 -0.18146699667 0.1914049983
          4.1665101051 -0.5 0.35283499956 4.039850235 -0.20272299647 0.21478900313
          4.2311301231 -0.28602001071 0.30712598562 3.9721999168 -0.5 0.36053299904
          -4.439789772 -0.27735000849 -0.054897699505 -4.6199498177 -0.5 -0.060735598207
          -4.7982001305 -0.27365100384 -0.020341299474 -4.5578799248 -0.5 0.075488097966
          -4.1763601303 0.12014900148 -0.5 -4.0041999817 0.10439799726 -0.5
          -4.0346798897 -0.02448659949 -0.29127898812 -4.1503901482 0.15257999301 -0.18268600106
          0.57046198845 0.31609800458 0.5 0.45764601231 0.28433001041 0.29305499792
          0.5860620141 0.083102703094 0.5 0.69564402103 0.31359699368 0.28978401423
          0.45764601231 0.28433001041 0.29305499792 0.46630200744 0.046083901078 0.25881299376
          0.5860620141 0.083102703094 0.5 0.69564402103 0.31359699368 0.28978401423
          0.45764601231 0.28433001041 0.29305499792 0.46630200744 0.046083901078 0.25881299376
          0.69564402103 0.31359699368 0.28978401423 0.69335997105 0.13933600485 0.14205299318
          0.45764601231 0.28433001041 0.29305499792 0.69335997105 0.13933600485 0.14205299318
          0.69564402103 0.31359699368 0.28978401423 0.46921399236 0.2665579915 0.056172598153
          0.45764601231 0.28433001041 0.29305499792 0.69564402103 0.31359699368 0.28978401423
          0.58821898699 0.5 0.18288999796 0.46921399236 0.2665579915 0.056172598153
          0.58821898699 0.5 0.18288999796 0.69564402103 0.31359699368 0.28978401423
          0.71180897951 0.31379199028 -0.019653400406 0.46921399236 0.2665579915 0.056172598153
          0.78051799536 0.5 0.18855799735 0.69564402103 0.31359699368 0.28978401423
          0.71180897951 0.31379199028 -0.019653400406 0.58821898699 0.5 0.18288999796
          0.78051799536 0.5 0.18855799735 0.58821898699 0.5 0.18288999796
          0.6344910264 0.5 0.40687701106 0.69564402103 0.31359699368 0.28978401423
          0.8470069766 0.5 0.36908501387 0.78051799536 0.5 0.18855799735
          0.6344910264 0.5 0.40687701106 0.69564402103 0.31359699368 0.28978401423
          0.8470069766 0.5 0.36908501387 0.69564402103 0.31359699368 0.28978401423
          0.6344910264 0.5 0.40687701106 0.76468199492 0.37051400542 0.5
          0.96667098999 0.22423000634 0.21116599441 0.78051799536 0.5 0.18855799735
          0.8470069766 0.5 0.36908501387 0.69564402103 0.31359699368 0.28978401423
          0.78051799536 0.5 0.18855799735 0.69564402103 0.31359699368 0.28978401423
          0.96667098999 0.22423000634 0.21116599441 0.71180897951 0.31379199028 -0.019653400406
          0.69564402103 0.31359699368 0.28978401423 0.69335997105 0.13933600485 0.14205299318
          0.96667098999 0.22423000634 0.21116599441 0.71180897951 0.31379199028 -0.019653400406
          0.69564402103 0.31359699368 0.28978401423 0.69335997105 0.13933600485 0.14205299318
          0.71180897951 0.31379199028 -0.019653400406 0.46921399236 0.2665579915 0.056172598153
          -2.4091000557 0.010666499846 0.010404500179 -2.2719900608 -0.32766199112 0.080448098481
          -2.4605801105 -0.31329700351 0.0017525800504 -2.4500799179 -0.18146699667 0.1914049983
          -1.0002299547 0.5 0.26042699814 -1.0912200212 0.5 0.03137230128
          -1.1475800276 0.23044300079 0.22876000404 -0.93830001354 0.5 0.10322599858
          0.81075197458 0.14764200151 0.31798198819 0.98735398054 0.096338197589 0.5
          1.0831899643 -0.026730500162 0.28337299824 0.813831985 0.031614098698 0.5
          0.067414298654 0.5 0.05388860032 0.057354498655 0.2768329978 0.30196899176
          0.086996898055 0.5 0.2632420063 0.20313000679 0.30061998963 0.0047877700999
          0.20313000679 0.30061998963 0.0047877700999 0.057354498655 0.2768329978 0.30196899176
          0.086996898055 0.5 0.2632420063 0.25142499804 0.20395800471 0.20601199567
          0.20313000679 0.30061998963 0.0047877700999 0.25142499804 0.20395800471 0.20601199567
          0.086996898055 0.5 0.2632420063 0.27400401235 0.5 0.12896299362
          0.20313000679 0.30061998963 0.0047877700999 -0.042902801186 0.13622699678 0.15243600309
          0.057354498655 0.2768329978 0.30196899176 0.25142499804 0.20395800471 0.20601199567
          0.20313000679 0.30061998963 0.0047877700999 0.3682860136 0.00067014299566 0.0082637900487
          0.14069800079 0.16885900497 -0.17604699731 0.12687399983 0.024941600859 0.019101899117
          4.2901201248 -0.17937499285 0.5 4.4160299301 -0.33252999187 0.5
          4.2311301231 -0.28602001071 0.30712598562 4.3113298416 -0.5 0.48262700438
          3.4012000561 -0.17302200198 0.5 3.2869899273 -0.28170898557 0.32561299205
          3.4722599983 -0.22174499929 0.20733100176 3.3886699677 0.01943529956 0.25713300705
          -3.7156999111 0.29170098901 -0.33228498697 -3.5694301128 0.5 -0.27657601237
          -3.4697299004 0.28407201171 -0.298379004 -3.6415400505 0.18903900683 -0.16241000593
          2.2021598816 0.01178739965 -0.018270699307 2.1778399944 -0.17710599303 0.19188399613
          2.0873699188 -0.15330499411 0.011435699649 1.9567300081 0.0023706499487 0.0081458101049
          -0.81901800632 -0.064964897931 -0.069114297628 -1.0750999451 -0.011404699646 0.007108009886
          -0.94314199686 -0.25431698561 0.040656600147 -0.93913400173 -0.20071199536 -0.20192199945
          -0.94314199686 -0.25431698561 0.040656600147 -0.93832302094 -0.045258000493 0.24930199981
          -1.0750999451 -0.011404699646 0.007108009886 -0.81901800632 -0.064964897931 -0.069114297628
          -4.8396000862 0.080449603498 -0.5 -4.7847399712 0.018612299114 -0.27819800377
          -4.6226601601 -0.13244700432 -0.5 -4.8039498329 -0.1570609957 -0.5
          3.4722599983 -0.22174499929 0.20733100176 3.4012000561 -0.17302200198 0.5
          3.4452700615 -0.38378500938 0.5 3.2869899273 -0.28170898557 0.32561299205
          4.4160299301 -0.33252999187 0.5 4.34815979 -0.5 0.30085599422
          4.2311301231 -0.28602001071 0.30712598562 4.3113298416 -0.5 0.48262700438
          0.2199189961 -0.15206000209 -0.010414100252 0.17147399485 -0.046462800354 -0.28626099229
          0.12687399983 0.024941600859 0.019101899117 -0.014450499788 -0.12391400337 -0.11072800308
          4.2311301231 -0.28602001071 0.30712598562 4.039850235 -0.20272299647 0.21478900313
          4.0639600754 -0.30339500308 0.5 3.9721999168 -0.5 0.36053299904
          -3.119879961 0.056279499084 0.0078261103481 -2.8607199192 0.16806200147 0.1988620013
          -3.0080699921 0.29238799214 0.028416100889 -2.8699100018 0.034952599555 0.013808799908
          -2.8607199192 0.16806200147 0.1988620013 -2.6441700459 0.0031107501127 0.0051095401868
          -2.6367399693 0.26534798741 0.078260503709 -2.8699100018 0.034952599555 0.013808799908
          -2.6850099564 0.20022499561 -0.22423900664 -2.6364200115 -0.0513737984 -0.25086298585
          -2.8274400234 0.051215600222 -0.3225030005 -2.8699100018 0.034952599555 0.013808799908
          -2.6364200115 -0.0513737984 -0.25086298585 -2.8483600616 -0.1823129952 -0.18523199856
          -2.8274400234 0.051215600222 -0.3225030005 -2.8699100018 0.034952599555 0.013808799908
          4.1333699226 0.29578199983 0.28484800458 3.9662399292 0.2043710053 0.5
          3.9557700157 0.35738798976 0.5 4.1193199158 0.19485099614 0.5
          -4.4353399277 -0.2726149857 -0.5 -4.623360157 -0.31539899111 -0.5
          -4.6226601601 -0.13244700432 -0.5 -4.4539299011 -0.1930360049 -0.27674099803
          -4.6226601601 -0.13244700432 -0.5 -4.623360157 -0.31539899111 -0.5
          -4.7819399834 -0.28898400068 -0.32071700692 -4.4539299011 -0.1930360049 -0.27674099803
          -0.20710499585 -0.46618500352 0.5 -0.10501199961 -0.31161299348 0.5
          -0.16431899369 -0.5 0.31346601248 0.098988100886 -0.5 0.3943490088
          -3.606400013 -0.5 0.29930099845 -3.7068300247 -0.31349000335 0.29142400622
          -3.7200200558 -0.5 0.14442199469 -3.4786798954 -0.29719600081 0.28423199058
          2.7811000347 -0.31243601441 -0.5 2.7792201042 -0.32771399617 -0.28562399745
          2.9336800575 -0.44553801417 -0.5 2.6179599762 -0.5 -0.39742100239
          0.15296399593 -0.18104599416 0.18370200694 -0.014323200099 -0.10396199673 0.093425601721
          0.10427799821 -0.31776800752 -0.01549869962 0.2199189961 -0.15206000209 -0.010414100252
          0.2199189961 -0.15206000209 -0.010414100252 0.12687399983 0.024941600859 0.019101899117
          0.3682860136 0.00067014299566 0.0082637900487 0.3798109889 -0.11770299822 0.17650899291
          2.4116399288 0.33501198888 0.26824301481 2.6889400482 0.16072399914 0.18579299748
          2.4481799603 0.24948500097 0.0013240700355 2.4428100586 0.10961800069 0.26388600469
          2.1986699104 0.16770100594 0.18445199728 2.4428100586 0.10961800069 0.26388600469
          2.4116399288 0.33501198888 0.26824301481 2.4481799603 0.24948500097 0.0013240700355
          2.4116399288 0.33501198888 0.26824301481 2.1986699104 0.16770100594 0.18445199728
          2.4481799603 0.24948500097 0.0013240700355 2.2155299187 0.29384601116 -0.016047000885
          2.4116399288 0.33501198888 0.26824301481 2.1185901165 0.5 0.19517299533
          2.1986699104 0.16770100594 0.18445199728 2.2155299187 0.29384601116 -0.016047000885
          2.1986699104 0.16770100594 0.18445199728 2.0367600918 0.30077698827 0.30471900105
          2.1185901165 0.5 0.19517299533 2.4116399288 0.33501198888 0.26824301481
          2.1986699104 0.16770100594 0.18445199728 2.2269999981 0.29644799232 0.5
          2.0367600918 0.30077698827 0.30471900105 2.4116399288 0.33501198888 0.26824301481
          2.4428100586 0.10961800069 0.26388600469 2.2269999981 0.29644799232 0.5
          2.1986699104 0.16770100594 0.18445199728 2.4116399288 0.33501198888 0.26824301481
          2.3315200806 0.075631901622 0.5 2.2269999981 0.29644799232 0.5
          2.4428100586 0.10961800069 0.26388600469 2.4116399288 0.33501198888 0.26824301481
          2.3315200806 0.075631901622 0.5 2.4116399288 0.33501198888 0.26824301481
          2.4428100586 0.10961800069 0.26388600469 2.4715499878 0.29645401239 0.5
          2.3315200806 0.075631901622 0.5 2.2269999981 0.29644799232 0.5
          2.4116399288 0.33501198888 0.26824301481 2.4715499878 0.29645401239 0.5
          -2.1791601181 0.066247500479 0.26825898886 -1.9649800062 -0.0049698902294 0.29592001438
          -1.9655499458 0.017111200839 0.015656199306 -2.187210083 -0.061865199357 0.039609499276
          -2.1791601181 0.066247500479 0.26825898886 -1.9649800062 -0.0049698902294 0.29592001438
          -1.9560199976 0.18910500407 0.17773799598 -1.9655499458 0.017111200839 0.015656199306
          -0.11357299984 -0.14485199749 -0.33142700791 -0.1279810071 -0.26361098886 -0.5
          -0.29398798943 -0.19200000167 -0.2282319963 -0.094856999815 -0.5 -0.28745400906
          -0.63783198595 0.084412999451 -0.319272995 -0.92764699459 0.27740699053 -0.26456698775
          -0.7856760025 -0.061230801046 -0.29652500153 -0.89940702915 0.048585001379 -0.5
          -4.5181999207 0.028785899282 0.28230598569 -4.8052501678 -0.030253799632 0.27854898572
          -4.6742100716 -0.19076700509 0.15933300555 -4.6812400818 0.14698000252 0.1767770052
          3.4734098911 0.21108800173 -0.2205349952 3.2970399857 0.30501198769 -0.2939350009
          3.2905800343 0.095524303615 -0.3324739933 3.4120700359 0.12526200712 -0.5
          1.8845000267 0.5 -0.10376700014 2.0984899998 0.5 -0.030215999112
          1.9183299541 0.30307900906 -0.11740200222 1.9609899521 0.27691298723 0.076514601707
          -4.4165802002 0.22745400667 0.23878499866 -4.5152201653 0.17846100032 0.5
          -4.3030099869 0.0012274599867 0.5 -4.5181999207 0.028785899282 0.28230598569
          -2.7145900726 -0.082542397082 0.279302001 -2.9220399857 -0.26491099596 0.30408999324
          -2.9183399677 -0.016215600073 0.29276099801 -2.7625899315 -0.27350199223 0.5
          4.2713398933 0.33074501157 0.5 4.1193199158 0.19485099614 0.5
          4.390999794 0.12619799376 0.5 4.2926101685 0.022265100852 0.30176800489
          4.039850235 -0.20272299647 0.21478900313 4.3434801102 -0.13885499537 0.17381000519
          4.2926101685 0.022265100852 0.30176800489 4.0886101723 0.063145399094 0.2613709867
          0.2199189961 -0.15206000209 -0.010414100252 -0.014450499788 -0.12391400337 -0.11072800308
          0.10427799821 -0.31776800752 -0.01549869962 0.27188199759 -0.21608300507 -0.19496400654
          3.1408400536 -0.26990801096 0.5 3.1743099689 -0.022352099419 0.31030499935
          3.0548899174 -0.0057386700064 0.5 2.9692099094 -0.18215200305 0.27709600329
          -0.47644600272 0.21734400094 -0.22011299431 -0.68140697479 0.28639298677 -0.28938999772
          -0.68823200464 0.30021798611 0.030239600688 -0.74285399914 0.13776800036 -0.12904399633
          4.373770237 0.29578301311 -0.0035506200511 4.0785198212 0.2688550055 0.022481000051
          4.3127498627 0.19265699387 0.16710400581 4.317220211 0.013630899601 -0.032561101019
          -4.439789772 -0.27735000849 -0.054897699505 -4.3976202011 -0.16255900264 0.25912800431
          -4.411260128 -0.00020594299713 -0.0010824199999 -4.2342700958 -0.2943969965 -0.036790598184
          4.5822200775 0.29958099127 -0.0073895901442 4.4144301414 0.5 -0.014668799937
          4.373770237 0.29578301311 -0.0035506200511 4.501060009 0.27867999673 -0.21826599538
          -0.92764699459 0.27740699053 -0.26456698775 -0.68140697479 0.28639298677 -0.28938999772
          -0.74285399914 0.13776800036 -0.12904399633 -0.68823200464 0.30021798611 0.030239600688
          -0.92764699459 0.27740699053 -0.26456698775 -0.68140697479 0.28639298677 -0.28938999772
          -0.68823200464 0.30021798611 0.030239600688 -0.89532899857 0.5 -0.11820399761
          -3.6039199829 -0.1486119926 -0.1880979985 -3.7279200554 -0.31415998936 -0.27874299884
          -3.5715000629 -0.33374500275 -0.11063300073 -3.406719923 -0.26567399502 -0.27803298831
          -3.5598199368 -0.5 0.038439199328 -3.6202099323 -0.16945900023 0.16224400699
          -3.7506599426 -0.28654700518 -0.026961300522 -3.5715000629 -0.33374500275 -0.11063300073
          -3.4054200649 -0.24873800576 -0.029902800918 -3.5715000629 -0.33374500275 -0.11063300073
          -3.5598199368 -0.5 0.038439199328 -3.3001599312 -0.5 -0.014418800361
          -0.68140697479 0.28639298677 -0.28938999772 -0.61564701796 0.5 -0.067553699017
          -0.68823200464 0.30021798611 0.030239600688 -0.89532899857 0.5 -0.11820399761
          2.1815600395 -0.001020470052 -0.32536798716 2.2796599865 0.15909999609 -0.20078100264
          2.4390499592 -0.057027101517 -0.2462310046 2.2014501095 -0.17346900702 -0.18166600168
          -2.4949100018 0.29038199782 -0.30940899253 -2.6364200115 -0.0513737984 -0.25086298585
          -2.471460104 0.079349301755 -0.5 -2.6850099564 0.20022499561 -0.22423900664
          0.75085902214 -0.045475300401 0.28253901005 0.81075197458 0.14764200151 0.31798198819
          1.0831899643 -0.026730500162 0.28337299824 0.813831985 0.031614098698 0.5
          -3.6415400505 0.18903900683 -0.16241000593 -3.5893199444 0.032997198403 -0.29434099793
          -3.5974299908 0.015700999647 0.0042460002005 -3.4390599728 0.16396200657 -0.12648099661
          -2.5055100918 0.5 -0.47431001067 -2.7123599052 0.5 -0.38375499845
          -2.4949100018 0.29038199782 -0.30940899253 -2.6168899536 0.31174701452 -0.5
          -2.5055100918 0.5 -0.47431001067 -2.7123599052 0.5 -0.38375499845
          -2.4157299995 0.5 -0.27320700884 -2.4949100018 0.29038199782 -0.30940899253
          -2.6490800381 0.5 -0.17990100384 -2.4949100018 0.29038199782 -0.30940899253
          -2.4157299995 0.5 -0.27320700884 -2.7123599052 0.5 -0.38375499845
          -2.6490800381 0.5 -0.17990100384 -2.6850099564 0.20022499561 -0.22423900664
          -2.4949100018 0.29038199782 -0.30940899253 -2.7123599052 0.5 -0.38375499845
          4.5181698799 -0.25569599867 -0.00080205698032 4.5178999901 -0.10659900308 -0.17478400469
          4.6962199211 -0.21809899807 -0.17522199452 4.7783799171 -0.058915100992 0.015639599413
          4.0157899857 0.23598599434 -0.23627699912 4.1566100121 -0.01251959987 -0.28246301413
          4.1314902306 0.23748099804 -0.5 3.9944400787 0.12515999377 -0.5
          -0.29698100686 -0.33138298988 0.28727200627 -0.10501199961 -0.31161299348 0.5
          -0.28134599328 -0.29646700621 0.5 -0.17885400355 -0.17817400396 0.19088800251
          -3.4054200649 -0.24873800576 -0.029902800918 -3.4786798954 -0.29719600081 0.28423199058
          -3.6202099323 -0.16945900023 0.16224400699 -3.2899799347 -0.19551900029 0.21153800189
          -3.4054200649 -0.24873800576 -0.029902800918 -3.4302499294 -0.5 0.19616499543
          -3.4786798954 -0.29719600081 0.28423199058 -3.2899799347 -0.19551900029 0.21153800189
          -3.5598199368 -0.5 0.038439199328 -3.4302499294 -0.5 0.19616499543
          -3.4786798954 -0.29719600081 0.28423199058 -3.4054200649 -0.24873800576 -0.029902800918
          -3.5598199368 -0.5 0.038439199328 -3.4786798954 -0.29719600081 0.28423199058
          -3.6202099323 -0.16945900023 0.16224400699 -3.4054200649 -0.24873800576 -0.029902800918
          3.3018300533 -0.5 0.031524900347 3.4722599983 -0.22174499929 0.20733100176
          3.424779892 -0.5 0.16588500142 3.2869899273 -0.28170898557 0.32561299205
          -3.606400013 -0.5 0.29930099845 -3.4786798954 -0.29719600081 0.28423199058
          -3.5598199368 -0.5 0.038439199328 -3.4302499294 -0.5 0.19616499543
          -3.606400013 -0.5 0.29930099845 -3.4625499249 -0.5 0.46369299293
          -3.4786798954 -0.29719600081 0.28423199058 -3.4302499294 -0.5 0.19616499543
          -3.606400013 -0.5 0.29930099845 -3.4625499249 -0.5 0.46369299293
          -3.5468900204 -0.30179598927 0.5 -3.4786798954 -0.29719600081 0.28423199058
          4.2713398933 0.33074501157 0.5 4.1193199158 0.19485099614 0.5
          4.2926101685 0.022265100852 0.30176800489 4.1333699226 0.29578199983 0.28484800458
          4.2311301231 -0.28602001071 0.30712598562 4.3434801102 -0.13885499537 0.17381000519
          4.2901201248 -0.17937499285 0.5 4.2926101685 0.022265100852 0.30176800489
          4.2713398933 0.33074501157 0.5 4.1333699226 0.29578199983 0.28484800458
          4.2926101685 0.022265100852 0.30176800489 4.3127498627 0.19265699387 0.16710400581
          -3.4625499249 -0.5 0.46369299293 -3.2725000381 -0.39861398935 0.5
          -3.5468900204 -0.30179598927 0.5 -3.4786798954 -0.29719600081 0.28423199058
          -3.4625499249 -0.5 0.46369299293 -3.2725000381 -0.39861398935 0.5
          -3.4786798954 -0.29719600081 0.28423199058 -3.2333400249 -0.5 0.24993300438
          -3.4625499249 -0.5 0.46369299293 -3.4786798954 -0.29719600081 0.28423199058
          -3.4302499294 -0.5 0.19616499543 -3.2333400249 -0.5 0.24993300438
          -3.4302499294 -0.5 0.19616499543 -3.4786798954 -0.29719600081 0.28423199058
          -3.2899799347 -0.19551900029 0.21153800189 -3.2333400249 -0.5 0.24993300438
          -3.4786798954 -0.29719600081 0.28423199058 -3.2725000381 -0.39861398935 0.5
          -3.2899799347 -0.19551900029 0.21153800189 -3.2333400249 -0.5 0.24993300438
          -3.4786798954 -0.29719600081 0.28423199058 -3.2725000381 -0.39861398935 0.5
          -3.2471899986 -0.22948899865 0.5 -3.2899799347 -0.19551900029 0.21153800189
          -3.4786798954 -0.29719600081 0.28423199058 -3.2471899986 -0.22948899865 0.5
          -3.349050045 -0.092123396695 0.5 -3.2899799347 -0.19551900029 0.21153800189
          4.5181698799 -0.25569599867 -0.00080205698032 4.5567698479 0.040265500546 -0.029345599934
          4.5178999901 -0.10659900308 -0.17478400469 4.7783799171 -0.058915100992 0.015639599413
          1.8699899912 -0.30787700415 -0.26772201061 1.6971999407 -0.18535399437 -0.17042499781
          1.8764899969 -0.15924200416 -0.081890702248 1.7191100121 -0.2926889956 0.013918399811
          -3.5468900204 -0.30179598927 0.5 -3.2725000381 -0.39861398935 0.5
          -3.2471899986 -0.22948899865 0.5 -3.4786798954 -0.29719600081 0.28423199058
          -1.0093300343 -0.26582100987 -0.5 -1.1352299452 -0.30921301246 -0.27610599995
          -0.93913400173 -0.20071199536 -0.20192199945 -0.77074998617 -0.30250000954 -0.3132340014
          -0.77074998617 -0.30250000954 -0.3132340014 -0.63522601128 -0.32412400842 -0.5
          -0.7581089735 -0.15487499535 -0.5 -0.7991899848 -0.42665201426 -0.5
          1.5854899883 0.5 -0.19192999601 1.5800199509 0.5 0.11975900084
          1.7531599998 0.5 0.036465600133 1.6601899862 0.29914501309 -0.0094896201044
          1.5854899883 0.5 -0.19192999601 1.7531599998 0.5 0.036465600133
          1.8845000267 0.5 -0.10376700014 1.6601899862 0.29914501309 -0.0094896201044
          1.4356100559 0.30725300312 0.014958400279 1.6601899862 0.29914501309 -0.0094896201044
          1.4897999763 0.29271999002 0.26752799749 1.5800199509 0.5 0.11975900084
          1.4356100559 0.30725300312 0.014958400279 1.7132099867 0.18727500737 0.17964400351
          1.4897999763 0.29271999002 0.26752799749 1.6601899862 0.29914501309 -0.0094896201044
          1.6601899862 0.29914501309 -0.0094896201044 1.7132099867 0.18727500737 0.17964400351
          1.4897999763 0.29271999002 0.26752799749 1.5800199509 0.5 0.11975900084
          1.6601899862 0.29914501309 -0.0094896201044 1.7132099867 0.18727500737 0.17964400351
          1.9609899521 0.27691298723 0.076514601707 1.7197300196 -0.0059337001294 -0.015229499899
          2.7815999985 0.20081700385 -0.5 2.8999099731 0.041673701257 -0.29681798816
          2.9223198891 0.00037304600119 -0.5 2.6635499001 -0.0075318100862 -0.31723999977
          2.7815999985 0.20081700385 -0.5 2.6635499001 -0.0075318100862 -0.31723999977
          2.9223198891 0.00037304600119 -0.5 2.7578799725 -0.10127799958 -0.5
          2.7815999985 0.20081700385 -0.5 2.6635499001 -0.0075318100862 -0.31723999977
          2.7578799725 -0.10127799958 -0.5 2.5377500057 -0.050653100014 -0.5
          2.6635499001 -0.0075318100862 -0.31723999977 2.8999099731 0.041673701257 -0.29681798816
          2.9223198891 0.00037304600119 -0.5 2.7578799725 -0.10127799958 -0.5
          2.6777200699 -0.0055014099926 -0.0048864497803 2.6635499001 -0.0075318100862 -0.31723999977
          2.8999099731 0.041673701257 -0.29681798816 2.6477799416 0.16645799577 -0.17383100092
          2.4390499592 -0.057027101517 -0.2462310046 2.6777200699 -0.0055014099926 -0.0048864497803
          2.6477799416 0.16645799577 -0.17383100092 2.6635499001 -0.0075318100862 -0.31723999977
          2.6477799416 0.16645799577 -0.17383100092 2.4688100815 0.27537798882 -0.28756999969
          2.4390499592 -0.057027101517 -0.2462310046 2.6635499001 -0.0075318100862 -0.31723999977
          2.6477799416 0.16645799577 -0.17383100092 2.4688100815 0.27537798882 -0.28756999969
          2.6635499001 -0.0075318100862 -0.31723999977 2.4803700447 0.1678159982 -0.5
          2.6635499001 -0.0075318100862 -0.31723999977 2.4688100815 0.27537798882 -0.28756999969
          2.4390499592 -0.057027101517 -0.2462310046 2.4803700447 0.1678159982 -0.5
          2.4390499592 -0.057027101517 -0.2462310046 2.6777200699 -0.0055014099926 -0.0048864497803
          2.6635499001 -0.0075318100862 -0.31723999977 2.6700599194 -0.18108099699 -0.17258299887
          2.6635499001 -0.0075318100862 -0.31723999977 2.6700599194 -0.18108099699 -0.17258299887
          2.4597499371 -0.30076900125 -0.3059630096 2.4390499592 -0.057027101517 -0.2462310046
          2.6635499001 -0.0075318100862 -0.31723999977 2.6700599194 -0.18108099699 -0.17258299887
          2.5818200111 -0.276602 -0.5 2.4597499371 -0.30076900125 -0.3059630096
          2.6777200699 -0.0055014099926 -0.0048864497803 2.6700599194 -0.18108099699 -0.17258299887
          2.8999099731 0.041673701257 -0.29681798816 2.6635499001 -0.0075318100862 -0.31723999977
          -3.7030899525 -0.27636900544 -0.5 -3.4891300201 -0.48809701204 -0.5
          -3.8310699463 -0.5 -0.38916000724 -3.7279200554 -0.31415998936 -0.27874299884
          -3.5095100403 -0.29471600056 -0.5 -3.7030899525 -0.27636900544 -0.5
          -3.7279200554 -0.31415998936 -0.27874299884 -3.4891300201 -0.48809701204 -0.5
          -3.5095100403 -0.29471600056 -0.5 -3.7279200554 -0.31415998936 -0.27874299884
          -3.6053900719 -0.5 -0.22260099649 -3.4891300201 -0.48809701204 -0.5
          -3.7279200554 -0.31415998936 -0.27874299884 -3.5095100403 -0.29471600056 -0.5
          -3.6053900719 -0.5 -0.22260099649 -3.406719923 -0.26567399502 -0.27803298831
          1.673140049 -0.32074698806 -0.32187500596 1.5000799894 -0.33221799135 -0.20392900705
          1.4673299789 -0.16130299866 -0.30513200164 1.6971999407 -0.18535399437 -0.17042499781
          -3.6039199829 -0.1486119926 -0.1880979985 -3.5095100403 -0.29471600056 -0.5
          -3.7279200554 -0.31415998936 -0.27874299884 -3.406719923 -0.26567399502 -0.27803298831
          -3.6039199829 -0.1486119926 -0.1880979985 -3.7030899525 -0.27636900544 -0.5
          -3.7279200554 -0.31415998936 -0.27874299884 -3.5095100403 -0.29471600056 -0.5
          -3.7156999111 0.29170098901 -0.33228498697 -3.5694301128 0.5 -0.27657601237
          -3.6415400505 0.18903900683 -0.16241000593 -3.6554999352 0.5 -0.12951600552
          1.4679900408 -0.23194299638 -0.032342601568 1.2443100214 -0.5 -0.079079799354
          1.5000799894 -0.33221799135 -0.20392900705 1.3097499609 -0.32079198956 -0.30054301023
          -3.7279200554 -0.31415998936 -0.27874299884 -3.8310699463 -0.5 -0.38916000724
          -3.8106400967 -0.5 -0.18066500127 -3.6053900719 -0.5 -0.22260099649
          -3.7279200554 -0.31415998936 -0.27874299884 -3.4891300201 -0.48809701204 -0.5
          -3.8310699463 -0.5 -0.38916000724 -3.6053900719 -0.5 -0.22260099649
          -1.4028999805 0.13422000408 0.12791000307 -1.5486299992 0.27752000093 0.017110800371
          -1.5096600056 -0.035843800753 0.024828599766 -1.4892100096 0.17613700032 -0.19808200002
          -1.4028999805 0.13422000408 0.12791000307 -1.4892100096 0.17613700032 -0.19808200002
          -1.5096600056 -0.035843800753 0.024828599766 -1.2951300144 0.045372098684 -0.065485596657
          -1.5096600056 -0.035843800753 0.024828599766 -1.5486299992 0.27752000093 0.017110800371
          -1.730610013 -0.00066968100145 -0.0049977498129 -1.4892100096 0.17613700032 -0.19808200002
          -1.4892100096 0.17613700032 -0.19808200002 -1.7309900522 0.022700900212 -0.2696749866
          -1.730610013 -0.00066968100145 -0.0049977498129 -1.5096600056 -0.035843800753 0.024828599766
          -1.5096600056 -0.035843800753 0.024828599766 -1.6647800207 0.24374599755 0.22540199757
          -1.730610013 -0.00066968100145 -0.0049977498129 -1.5486299992 0.27752000093 0.017110800371
          -1.5096600056 -0.035843800753 0.024828599766 -1.6647800207 0.24374599755 0.22540199757
          -1.6999100447 -0.016917800531 0.25771600008 -1.730610013 -0.00066968100145 -0.0049977498129
          -2.4208400249 -0.17098300159 -0.17608100176 -2.2611498833 -0.21604500711 -0.31563100219
          -2.1942100525 -0.27436101437 -0.10729199648 -2.1682898998 -0.037599701434 -0.23476999998
          -2.9755399227 0.12714900076 -0.1661580056 -2.8308598995 0.31636199355 -0.103422001
          -3.0080699921 0.29238799214 0.028416100889 -3.0582199097 0.31288200617 -0.29153999686
          -1.5096600056 -0.035843800753 0.024828599766 -1.670410037 -0.23073199391 -0.21768200397
          -1.728489995 -0.2819840014 0.029070099816 -1.4028300047 -0.15640300512 -0.13328300416
          -1.5251499414 -0.076651901007 -0.31482899189 -1.670410037 -0.23073199391 -0.21768200397
          -1.5096600056 -0.035843800753 0.024828599766 -1.4028300047 -0.15640300512 -0.13328300416
          4.5567698479 0.040265500546 -0.029345599934 4.373770237 0.29578301311 -0.0035506200511
          4.317220211 0.013630899601 -0.032561101019 4.2944598198 0.20695400238 -0.17472800612
          2.1893599033 0.29838100076 -0.5 2.2007598877 0.32477998734 -0.29550099373
          2.2679901123 0.5 -0.42606198788 2.3855099678 0.34596499801 -0.5
          4.501060009 0.27867999673 -0.21826599538 4.4144301414 0.5 -0.014668799937
          4.373770237 0.29578301311 -0.0035506200511 4.4749798775 0.5 -0.22600099444
          4.2944598198 0.20695400238 -0.17472800612 4.5567698479 0.040265500546 -0.029345599934
          4.373770237 0.29578301311 -0.0035506200511 4.501060009 0.27867999673 -0.21826599538
          -4.2715802193 -0.32873600721 0.20494799316 -4.3976202011 -0.16255900264 0.25912800431
          -4.2342700958 -0.2943969965 -0.036790598184 -4.1423802376 -0.18350799382 0.11192400008
          3.9944400787 0.12515999377 -0.5 4.0157899857 0.23598599434 -0.23627699912
          4.091340065 0.41007000208 -0.5 4.1314902306 0.23748099804 -0.5
          0.15296399593 -0.18104599416 0.18370200694 0.028599999845 -0.025005400181 0.30730199814
          0.12687399983 0.024941600859 0.019101899117 0.25244501233 -0.012676700018 0.29410201311
          -1.6768000126 0.5 -0.27391400933 -1.8656400442 0.28522598743 -0.2969610095
          -1.8758599758 0.5 -0.063933096826 -1.7420699596 0.2584669888 -0.11043199897
          -1.8656400442 0.28522598743 -0.2969610095 -2.0428700447 0.13684900105 -0.5
          -2.0033299923 0.17082899809 -0.16009199619 -1.9522600174 -0.011583000422 -0.29229301214
          -1.8656400442 0.28522598743 -0.2969610095 -2.0033299923 0.17082899809 -0.16009199619
          -1.7420699596 0.2584669888 -0.11043199897 -1.7309900522 0.022700900212 -0.2696749866
          1.8424299955 0.5 0.20660300553 2.0367600918 0.30077698827 0.30471900105
          1.9609899521 0.27691298723 0.076514601707 1.818590045 0.3155849874 0.32314199209
          4.317220211 0.013630899601 -0.032561101019 4.3479599953 -0.069560296834 -0.31158301234
          4.3278198242 -0.19421100616 -0.1541839987 4.5178999901 -0.10659900308 -0.17478400469
          1.7197300196 -0.0059337001294 -0.015229499899 1.6828099489 -0.15067499876 0.17043499649
          1.7132099867 0.18727500737 0.17964400351 1.71875 0.012455300428 0.32105600834
          2.3215301037 -0.5 0.19653899968 2.4458899498 -0.25059598684 0.23923400044
          2.2669200897 -0.32125800848 0.30331799388 2.2314100266 -0.30056801438 0.0065283500589
          -1.9338200092 0.5 -0.29581001401 -2.1895999908 0.28031998873 -0.27681100368
          -2.0033299923 0.17082899809 -0.16009199619 -1.8656400442 0.28522598743 -0.2969610095
          -1.8656400442 0.28522598743 -0.2969610095 -2.1895999908 0.28031998873 -0.27681100368
          -2.0033299923 0.17082899809 -0.16009199619 -2.0428700447 0.13684900105 -0.5
          0.77794498205 -0.5 0.24261300266 0.78195297718 -0.29943698645 0.031285099685
          0.7291790247 -0.29900100827 0.29153800011 0.68863600492 -0.5 0.092009201646
          -1.2951300144 0.045372098684 -0.065485596657 -1.4892100096 0.17613700032 -0.19808200002
          -1.3341200352 0.058667398989 -0.30476099253 -1.1753100157 0.18597100675 -0.21642799675
          -2.0386500359 -0.018439799547 -0.5 -2.1227400303 -0.27935901284 -0.5
          -1.9522600174 -0.011583000422 -0.29229301214 -1.890920043 -0.16450600326 -0.5
          -2.1682898998 -0.037599701434 -0.23476999998 -2.1227400303 -0.27935901284 -0.5
          -1.9522600174 -0.011583000422 -0.29229301214 -2.0386500359 -0.018439799547 -0.5
          4.5424098969 -0.083453699946 0.5 4.794479847 -0.0099189598113 0.26575800776
          4.6710700989 -0.19623799622 0.19057400525 4.7622699738 -0.21942800283 0.5
          -1.9655499458 0.017111200839 0.015656199306 -2.1682898998 -0.037599701434 -0.23476999998
          -1.9544999599 -0.19884000719 -0.16746899486 -1.9522600174 -0.011583000422 -0.29229301214
          -1.9522600174 -0.011583000422 -0.29229301214 -1.9655499458 0.017111200839 0.015656199306
          -1.730610013 -0.00066968100145 -0.0049977498129 -1.9544999599 -0.19884000719 -0.16746899486
          -1.9655499458 0.017111200839 0.015656199306 -2.1682898998 -0.037599701434 -0.23476999998
          -1.9522600174 -0.011583000422 -0.29229301214 -2.0033299923 0.17082899809 -0.16009199619
          2.4968700409 -0.3149009943 0.5 2.2669200897 -0.32125800848 0.30331799388
          2.4503700733 -0.5 0.32925000787 2.4458899498 -0.25059598684 0.23923400044
          2.4968700409 -0.3149009943 0.5 2.2669200897 -0.32125800848 0.30331799388
          2.4458899498 -0.25059598684 0.23923400044 2.3842000961 -0.1629229933 0.5
          2.4968700409 -0.3149009943 0.5 2.2452199459 -0.36571800709 0.5
          2.2669200897 -0.32125800848 0.30331799388 2.3842000961 -0.1629229933 0.5
          2.3865699768 -0.46860298514 0.5 2.2103800774 -0.5 0.38068500161
          2.2669200897 -0.32125800848 0.30331799388 2.2452199459 -0.36571800709 0.5
          -0.53887498379 -0.034443799406 0.20534600317 -0.40286201239 -0.0046954802237 -0.0054140798748
          -0.35255399346 0.016716400161 0.25871700048 -0.55149698257 0.19303299487 0.18695600331
          -0.53925698996 -0.14979499578 0.041408799589 -0.40286201239 -0.0046954802237 -0.0054140798748
          -0.53887498379 -0.034443799406 0.20534600317 -0.62403798103 0.035430200398 0.037675399333
          -0.47644600272 0.21734400094 -0.22011299431 -0.47131600976 0.32570299506 -0.023170199245
          -0.62403798103 0.035430200398 0.037675399333 -0.74285399914 0.13776800036 -0.12904399633
          -0.47644600272 0.21734400094 -0.22011299431 -0.47131600976 0.32570299506 -0.023170199245
          -0.40286201239 -0.0046954802237 -0.0054140798748 -0.62403798103 0.035430200398 0.037675399333
          -0.47131600976 0.32570299506 -0.023170199245 -0.55149698257 0.19303299487 0.18695600331
          -0.40286201239 -0.0046954802237 -0.0054140798748 -0.62403798103 0.035430200398 0.037675399333
          -0.47131600976 0.32570299506 -0.023170199245 -0.55149698257 0.19303299487 0.18695600331
          -0.62403798103 0.035430200398 0.037675399333 -0.68823200464 0.30021798611 0.030239600688
          -0.47131600976 0.32570299506 -0.023170199245 -0.68823200464 0.30021798611 0.030239600688
          -0.62403798103 0.035430200398 0.037675399333 -0.74285399914 0.13776800036 -0.12904399633
          -0.47131600976 0.32570299506 -0.023170199245 -0.50226300955 0.5 0.14767700434
          -0.55149698257 0.19303299487 0.18695600331 -0.68823200464 0.30021798611 0.030239600688
          -0.47131600976 0.32570299506 -0.023170199245 -0.50226300955 0.5 0.14767700434
          -0.68823200464 0.30021798611 0.030239600688 -0.61564701796 0.5 -0.067553699017
          -0.47131600976 0.32570299506 -0.023170199245 -0.61564701796 0.5 -0.067553699017
          -0.68823200464 0.30021798611 0.030239600688 -0.68140697479 0.28639298677 -0.28938999772
          3.1743099689 -0.022352099419 0.31030499935 3.3886699677 0.01943529956 0.25713300705
          3.1624600887 -0.015569499694 -0.02179059945 3.1743900776 -0.18350000679 0.1536089927
          3.1743099689 -0.022352099419 0.31030499935 3.1743900776 -0.18350000679 0.1536089927
          3.1624600887 -0.015569499694 -0.02179059945 2.9353599548 0.054025001824 0.25657498837
          3.1800200939 0.15828900039 0.1766680032 3.1743099689 -0.022352099419 0.31030499935
          3.1624600887 -0.015569499694 -0.02179059945 2.9353599548 0.054025001824 0.25657498837
          3.1800200939 0.15828900039 0.1766680032 3.3886699677 0.01943529956 0.25713300705
          3.1624600887 -0.015569499694 -0.02179059945 3.1743099689 -0.022352099419 0.31030499935
          3.1800200939 0.15828900039 0.1766680032 3.1743099689 -0.022352099419 0.31030499935
          3.353579998 0.25871399045 0.31244799495 3.3886699677 0.01943529956 0.25713300705
          3.1800200939 0.15828900039 0.1766680032 3.1743099689 -0.022352099419 0.31030499935
          3.1938300133 0.27075499296 0.5 3.353579998 0.25871399045 0.31244799495
          3.1743099689 -0.022352099419 0.31030499935 3.3009901047 0.050491899252 0.5
          3.1938300133 0.27075499296 0.5 3.353579998 0.25871399045 0.31244799495
          3.1743099689 -0.022352099419 0.31030499935 3.3009901047 0.050491899252 0.5
          3.353579998 0.25871399045 0.31244799495 3.3886699677 0.01943529956 0.25713300705
          -0.93832302094 -0.045258000493 0.24930199981 -0.86464500427 0.18405400217 0.1796399951
          -0.81901800632 -0.064964897931 -0.069114297628 -0.74051898718 -0.13983599842 0.1276730001
          -0.62403798103 0.035430200398 0.037675399333 -0.86464500427 0.18405400217 0.1796399951
          -0.74051898718 -0.13983599842 0.1276730001 -0.81901800632 -0.064964897931 -0.069114297628
          -3.2809400558 -0.26598799229 -0.5 -3.1973099709 -0.4143140018 -0.5
          -3.3308799267 -0.5 -0.28216999769 -3.1629300117 -0.5 -0.34590101242
          -3.387419939 -0.020452000201 -0.26496699452 -3.406719923 -0.26567399502 -0.27803298831
          -3.1692500114 -0.17956000566 -0.18042400479 -3.2809400558 -0.26598799229 -0.5
          -3.2809400558 -0.26598799229 -0.5 -3.4891300201 -0.48809701204 -0.5
          -3.3308799267 -0.5 -0.28216999769 -3.1973099709 -0.4143140018 -0.5
          0.25244501233 -0.012676700018 0.29410201311 0.25142499804 0.20395800471 0.20601199567
          0.3682860136 0.00067014299566 0.0082637900487 0.46630200744 0.046083901078 0.25881299376
          0.25244501233 -0.012676700018 0.29410201311 0.12687399983 0.024941600859 0.019101899117
          0.3682860136 0.00067014299566 0.0082637900487 0.25142499804 0.20395800471 0.20601199567
          0.25244501233 -0.012676700018 0.29410201311 0.028599999845 -0.025005400181 0.30730199814
          0.12687399983 0.024941600859 0.019101899117 0.25142499804 0.20395800471 0.20601199567
          0.25142499804 0.20395800471 0.20601199567 0.25244501233 -0.012676700018 0.29410201311
          0.028599999845 -0.025005400181 0.30730199814 0.057354498655 0.2768329978 0.30196899176
          0.25142499804 0.20395800471 0.20601199567 0.083770796657 0.16607399285 0.5
          0.25244501233 -0.012676700018 0.29410201311 0.057354498655 0.2768329978 0.30196899176
          0.25244501233 -0.012676700018 0.29410201311 0.083770796657 0.16607399285 0.5
          0.028599999845 -0.025005400181 0.30730199814 0.057354498655 0.2768329978 0.30196899176
          0.25244501233 -0.012676700018 0.29410201311 0.083770796657 0.16607399285 0.5
          0.15341800451 0.023780800402 0.5 0.028599999845 -0.025005400181 0.30730199814
          -2.4325098991 0.0032291798852 0.31787699461 -2.1791601181 0.066247500479 0.26825898886
          -2.3996500969 0.17564900219 0.17784799635 -2.4091000557 0.010666499846 0.010404500179
          -2.4325098991 0.0032291798852 0.31787699461 -2.1791601181 0.066247500479 0.26825898886
          -2.4091000557 0.010666499846 0.010404500179 -2.187210083 -0.061865199357 0.039609499276
          -2.4325098991 0.0032291798852 0.31787699461 -2.2944800854 0.10816299915 0.5
          -2.3996500969 0.17564900219 0.17784799635 -2.1791601181 0.066247500479 0.26825898886
          -2.3996500969 0.17564900219 0.17784799635 -2.4461400509 0.30663898587 0.5
          -2.2944800854 0.10816299915 0.5 -2.4325098991 0.0032291798852 0.31787699461
          3.6228199005 0.064896397293 -0.30187800527 3.4734098911 0.21108800173 -0.2205349952
          3.7566299438 0.15342700481 -0.14512400329 3.6606800556 0.057222399861 0.047008000314
          3.4734098911 0.21108800173 -0.2205349952 3.6228199005 0.064896397293 -0.30187800527
          3.7566299438 0.15342700481 -0.14512400329 3.6711499691 0.31469801068 -0.29238000512
          3.4734098911 0.21108800173 -0.2205349952 3.6057898998 0.18472599983 -0.5
          3.6228199005 0.064896397293 -0.30187800527 3.6711499691 0.31469801068 -0.29238000512
          3.6057898998 0.18472599983 -0.5 3.6711499691 0.31469801068 -0.29238000512
          3.7777900696 0.29186201096 -0.5 3.6228199005 0.064896397293 -0.30187800527
          3.6057898998 0.18472599983 -0.5 3.6228199005 0.064896397293 -0.30187800527
          3.7777900696 0.29186201096 -0.5 3.7148199081 0.013914800249 -0.5
          3.6057898998 0.18472599983 -0.5 3.6228199005 0.064896397293 -0.30187800527
          3.7148199081 0.013914800249 -0.5 3.4951400757 -0.11613500118 -0.5
          -1.0519599915 0.24375100434 -0.5 -0.94353401661 0.5 -0.43025898933
          -1.0104800463 0.5 -0.2601659894 -1.2071399689 0.32934400439 -0.5
          3.7148199081 0.013914800249 -0.5 3.6228199005 0.064896397293 -0.30187800527
          3.7777900696 0.29186201096 -0.5 3.9046399593 0.029231099412 -0.28819599748
          3.6228199005 0.064896397293 -0.30187800527 3.6711499691 0.31469801068 -0.29238000512
          3.7777900696 0.29186201096 -0.5 3.9046399593 0.029231099412 -0.28819599748
          3.6228199005 0.064896397293 -0.30187800527 3.7566299438 0.15342700481 -0.14512400329
          3.6711499691 0.31469801068 -0.29238000512 3.9046399593 0.029231099412 -0.28819599748
          -1.0104800463 0.5 -0.2601659894 -0.92764699459 0.27740699053 -0.26456698775
          -1.1753100157 0.18597100675 -0.21642799675 -1.1828099489 0.5 -0.19919799268
          -5 -0.16616299748 -0.067754097283 -5 -0.33370301127 -0.29875099659
          -4.7982001305 -0.27365100384 -0.020341299474 -4.7819399834 -0.28898400068 -0.32071700692
          -5 -0.16616299748 -0.067754097283 -4.7819399834 -0.28898400068 -0.32071700692
          -4.7982001305 -0.27365100384 -0.020341299474 -4.6675601006 -0.16073800623 -0.17753699422
          -4.6675601006 -0.16073800623 -0.17753699422 -4.7847399712 0.018612299114 -0.27819800377
          -5 -0.16616299748 -0.067754097283 -4.7819399834 -0.28898400068 -0.32071700692
          -4.7982001305 -0.27365100384 -0.020341299474 -4.7819399834 -0.28898400068 -0.32071700692
          -4.7461600304 -0.5 -0.23019599915 -4.6675601006 -0.16073800623 -0.17753699422
          -4.7982001305 -0.27365100384 -0.020341299474 -4.7819399834 -0.28898400068 -0.32071700692
          -4.9761099815 -0.5 -0.16763499379 -4.7461600304 -0.5 -0.23019599915
          -4.7982001305 -0.27365100384 -0.020341299474 -5 -0.33370301127 -0.29875099659
          -4.9761099815 -0.5 -0.16763499379 -4.7819399834 -0.28898400068 -0.32071700692
          -4.7819399834 -0.28898400068 -0.32071700692 -5 -0.33370301127 -0.29875099659
          -4.9761099815 -0.5 -0.16763499379 -4.7461600304 -0.5 -0.23019599915
          -5 -0.13075700402 -0.36378800869 -4.9632401466 -0.39340698719 -0.5
          -5 -0.33370301127 -0.29875099659 -4.7819399834 -0.28898400068 -0.32071700692
          -5 -0.13075700402 -0.36378800869 -4.9632401466 -0.39340698719 -0.5
          -4.7819399834 -0.28898400068 -0.32071700692 -4.8039498329 -0.1570609957 -0.5
          -4.8039498329 -0.1570609957 -0.5 -4.9632401466 -0.39340698719 -0.5
          -4.7819399834 -0.28898400068 -0.32071700692 -4.623360157 -0.31539899111 -0.5
          -4.7819399834 -0.28898400068 -0.32071700692 -4.9632401466 -0.39340698719 -0.5
          -4.7598800659 -0.5 -0.39154198766 -4.623360157 -0.31539899111 -0.5
          -4.7819399834 -0.28898400068 -0.32071700692 -4.623360157 -0.31539899111 -0.5
          -4.7598800659 -0.5 -0.39154198766 -4.5859699249 -0.5 -0.20652399957
          -4.7819399834 -0.28898400068 -0.32071700692 -4.623360157 -0.31539899111 -0.5
          -4.5859699249 -0.5 -0.20652399957 -4.4539299011 -0.1930360049 -0.27674099803
          -5 -0.33370301127 -0.29875099659 -4.9632401466 -0.39340698719 -0.5
          -4.7598800659 -0.5 -0.39154198766 -4.7819399834 -0.28898400068 -0.32071700692
          1.7191100121 -0.2926889956 0.013918399811 1.6971999407 -0.18535399437 -0.17042499781
          1.8764899969 -0.15924200416 -0.081890702248 1.7197300196 -0.0059337001294 -0.015229499899
          -2.1895999908 0.28031998873 -0.27681100368 -2.3735599518 -0.0037444499321 -0.31686800718
          -2.1926898956 0.17790399492 -0.5 -2.3761999607 0.32358598709 -0.5
          -2.1895999908 0.28031998873 -0.27681100368 -2.4949100018 0.29038199782 -0.30940899253
          -2.3735599518 -0.0037444499321 -0.31686800718 -2.3761999607 0.32358598709 -0.5
          -2.1895999908 0.28031998873 -0.27681100368 -2.3742499352 0.16180799901 -0.16647900641
          -2.3735599518 -0.0037444499321 -0.31686800718 -2.4949100018 0.29038199782 -0.30940899253
          -2.3742499352 0.16180799901 -0.16647900641 -2.1682898998 -0.037599701434 -0.23476999998
          -2.1895999908 0.28031998873 -0.27681100368 -2.3735599518 -0.0037444499321 -0.31686800718
          -2.3742499352 0.16180799901 -0.16647900641 -2.3735599518 -0.0037444499321 -0.31686800718
          -2.4949100018 0.29038199782 -0.30940899253 -2.6850099564 0.20022499561 -0.22423900664
          -2.3742499352 0.16180799901 -0.16647900641 -2.6364200115 -0.0513737984 -0.25086298585
          -2.3735599518 -0.0037444499321 -0.31686800718 -2.6850099564 0.20022499561 -0.22423900664
          -2.3735599518 -0.0037444499321 -0.31686800718 -2.6364200115 -0.0513737984 -0.25086298585
          -2.4949100018 0.29038199782 -0.30940899253 -2.6850099564 0.20022499561 -0.22423900664
          -2.3735599518 -0.0037444499321 -0.31686800718 -2.6364200115 -0.0513737984 -0.25086298585
          -2.471460104 0.079349301755 -0.5 -2.4949100018 0.29038199782 -0.30940899253
          -2.3735599518 -0.0037444499321 -0.31686800718 -2.4949100018 0.29038199782 -0.30940899253
          -2.471460104 0.079349301755 -0.5 -2.3761999607 0.32358598709 -0.5
          -2.1926898956 0.17790399492 -0.5 -2.3735599518 -0.0037444499321 -0.31686800718
          -2.471460104 0.079349301755 -0.5 -2.3761999607 0.32358598709 -0.5
          -2.3735599518 -0.0037444499321 -0.31686800718 -2.471460104 0.079349301755 -0.5
          -2.2438600063 -0.050747901201 -0.5 -2.1926898956 0.17790399492 -0.5
          -0.80325001478 0.5 -0.29217898846 -0.61564701796 0.5 -0.067553699017
          -0.68140697479 0.28639298677 -0.28938999772 -0.89532899857 0.5 -0.11820399761
          3.8334798813 -0.29951399565 -0.035472199321 3.7557299137 -0.14269599319 0.12685400248
          4.039850235 -0.20272299647 0.21478900313 3.8753499985 -0.34310999513 0.22761000693
          1.0831899643 -0.026730500162 0.28337299824 1.2891700268 0.025188799948 0.31899100542
          1.298789978 -0.15092399716 0.16408100724 1.2525800467 -0.23895399272 0.5
          -2.2438600063 -0.050747901201 -0.5 -2.4248900414 -0.10110799968 -0.5
          -2.471460104 0.079349301755 -0.5 -2.3735599518 -0.0037444499321 -0.31686800718
          -2.2438600063 -0.050747901201 -0.5 -2.3032701015 -0.32206401229 -0.5
          -2.4248900414 -0.10110799968 -0.5 -2.2611498833 -0.21604500711 -0.31563100219
          3.4916698933 -0.37139999866 -0.5 3.7514400482 -0.26456600428 -0.5
          3.6315801144 -0.5 -0.39594000578 3.7846400738 -0.3112359941 -0.2879639864
          3.6315801144 -0.5 -0.39594000578 3.7846400738 -0.3112359941 -0.2879639864
          3.8477098942 -0.5 -0.38085699081 3.790719986 -0.5 -0.15779900551
          3.5628299713 -0.5 -0.19047999382 3.7846400738 -0.3112359941 -0.2879639864
          3.6315801144 -0.5 -0.39594000578 3.790719986 -0.5 -0.15779900551
          -4.1248002052 0.32227998972 0.33130601048 -4.0860900879 0.5 0.47527000308
          -4.261590004 0.5 0.28367200494 -4.0642700195 0.5 0.20991900563
          -3.1402900219 0.086144499481 -0.5 -3.2586500645 0.20448499918 -0.21992500126
          -3.2168300152 0.015511999838 -0.16400499642 -3.387419939 -0.020452000201 -0.26496699452
          4.7025499344 0.19734199345 0.20103999972 4.8432202339 0.33124399185 0.15127900243
          4.8058700562 0.17079499364 -0.0053127701394 5 0.029062800109 0.15694400668
          -2.182790041 0.25494199991 0.029647100717 -2.4091000557 0.010666499846 0.010404500179
          -2.4123599529 0.30793198943 -0.0017855500337 -2.3996500969 0.17564900219 0.17784799635
          -2.182790041 0.25494199991 0.029647100717 -2.3996500969 0.17564900219 0.17784799635
          -2.4123599529 0.30793198943 -0.0017855500337 -2.2191998959 0.31082698703 0.26025301218
          -2.182790041 0.25494199991 0.029647100717 -2.4123599529 0.30793198943 -0.0017855500337
          -2.2987000942 0.5 -0.012699699961 -2.2191998959 0.31082698703 0.26025301218
          -2.2191998959 0.31082698703 0.26025301218 -2.5066099167 0.5 0.23033800721
          -2.4123599529 0.30793198943 -0.0017855500337 -2.2987000942 0.5 -0.012699699961
          -2.2191998959 0.31082698703 0.26025301218 -2.5066099167 0.5 0.23033800721
          -2.3996500969 0.17564900219 0.17784799635 -2.4123599529 0.30793198943 -0.0017855500337
          -2.4123599529 0.30793198943 -0.0017855500337 -2.6367399693 0.26534798741 0.078260503709
          -2.5066099167 0.5 0.23033800721 -2.3996500969 0.17564900219 0.17784799635
          -3.4390599728 0.16396200657 -0.12648099661 -3.387419939 -0.020452000201 -0.26496699452
          -3.353219986 0.018101999536 -0.0069937198423 -3.2168300152 0.015511999838 -0.16400499642
          2.2014501095 -0.17346900702 -0.18166600168 2.0873699188 -0.15330499411 0.011435699649
          2.2314100266 -0.30056801438 0.0065283500589 2.0320599079 -0.29999300838 -0.11793000251
          1.9567300081 0.0023706499487 0.0081458101049 1.9453500509 -0.087545797229 -0.2573390007
          2.0873699188 -0.15330499411 0.011435699649 2.2021598816 0.01178739965 -0.018270699307
          -0.30496299267 0.34233599901 -0.13862299919 -0.021123599261 0.2901929915 -0.037268299609
          -0.28813400865 0.5 -0.011587300338 -0.12392300367 0.5 -0.12977199256
          -1.2537200451 0.5 -0.48933500051 -1.3414299488 0.2976360023 -0.30167099833
          -1.2071399689 0.32934400439 -0.5 -1.3366099596 0.20833599567 -0.5
          -1.3414299488 0.2976360023 -0.30167099833 -1.4210100174 0.5 -0.29471999407
          -1.4628200531 0.5 -0.09861010313 -1.4892100096 0.17613700032 -0.19808200002
          -0.12392300367 0.5 -0.12977199256 -0.30496299267 0.34233599901 -0.13862299919
          -0.26246398687 0.5 -0.27721399069 -0.28813400865 0.5 -0.011587300338
          -0.18946300447 0.17974199355 -0.1773750037 -0.021123599261 0.2901929915 -0.037268299609
          -0.30496299267 0.34233599901 -0.13862299919 -0.12392300367 0.5 -0.12977199256
          -1.334980011 -0.066682696342 0.27562999725 -1.3192800283 -0.11339899898 0.070827797055
          -1.1246000528 -0.21291700006 0.24169400334 -1.1438100338 0.013993400149 0.21154500544
          -1.4028999805 0.13422000408 0.12791000307 -1.2951300144 0.045372098684 -0.065485596657
          -1.5096600056 -0.035843800753 0.024828599766 -1.3192800283 -0.11339899898 0.070827797055
          -1.4028999805 0.13422000408 0.12791000307 -1.3192800283 -0.11339899898 0.070827797055
          -1.334980011 -0.066682696342 0.27562999725 -1.1438100338 0.013993400149 0.21154500544
          -1.334980011 -0.066682696342 0.27562999725 -1.3192800283 -0.11339899898 0.070827797055
          -1.3444800377 -0.30236798525 0.28137201071 -1.1246000528 -0.21291700006 0.24169400334
          2.6795399189 -0.26569700241 0.5 2.4458899498 -0.25059598684 0.23923400044
          2.797960043 -0.29616799951 0.32714900374 2.7103700638 -0.17533199489 0.17696000636
          2.7243199348 -0.5 0.48583400249 2.6250600815 -0.5 0.26846000552
          2.797960043 -0.29616799951 0.32714900374 2.6795399189 -0.26569700241 0.5
          2.9622399807 -0.48268601298 0.5 2.7243199348 -0.5 0.48583400249
          2.797960043 -0.29616799951 0.32714900374 2.9103798866 -0.24695399404 0.5
          -1.728489995 -0.2819840014 0.029070099816 -1.9544999599 -0.19884000719 -0.16746899486
          -1.9215400219 -0.19377499819 0.17684599757 -2.0675001144 -0.32273799181 0.069159403443
          -1.728489995 -0.2819840014 0.029070099816 -1.9544999599 -0.19884000719 -0.16746899486
          -2.0675001144 -0.32273799181 0.069159403443 -1.8892199993 -0.5 -0.034159000963
          -2.0675001144 -0.32273799181 0.069159403443 -1.9655499458 0.017111200839 0.015656199306
          -2.187210083 -0.061865199357 0.039609499276 -1.9544999599 -0.19884000719 -0.16746899486
          -1.9544999599 -0.19884000719 -0.16746899486 -2.187210083 -0.061865199357 0.039609499276
          -2.0675001144 -0.32273799181 0.069159403443 -2.1942100525 -0.27436101437 -0.10729199648
          0.89347398281 0.5 -0.40201699734 1.0351999998 0.5 -0.23184999824
          1.1232800484 0.5 -0.40171200037 1.0355600119 0.3612369895 -0.5
          1.035220027 0.14891000092 -0.29856100678 1.0351999998 0.5 -0.23184999824
          1.0355600119 0.3612369895 -0.5 1.1232800484 0.5 -0.40171200037
          -2.03008008 -0.5 0.23870000243 -2.1809399128 -0.24249899387 0.24300700426
          -2.268130064 -0.5 0.23155200481 -2.0675001144 -0.32273799181 0.069159403443
          -2.03008008 -0.5 0.23870000243 -2.0675001144 -0.32273799181 0.069159403443
          -2.268130064 -0.5 0.23155200481 -2.0754799843 -0.5 -0.065173096955
          0.58512401581 -0.18639500439 0.18318599463 0.36774501204 -0.27583301067 0.050296399742
          0.57815998793 -0.31825500727 -0.050177000463 0.58827602863 -0.023083500564 0.03204099834
          -3.6195299625 0.18837699294 0.1758890003 -3.5796399117 -0.036828301847 0.30965799093
          -3.595760107 0.14106500149 0.5 -3.40102005 0.049610700458 0.26974400878
          -4.2659602165 0.28228399158 0.5 -4.2407898903 -0.014909300022 0.29183000326
          -4.4165802002 0.22745400667 0.23878499866 -4.3030099869 0.0012274599867 0.5
          2.2269999981 0.29644799232 0.5 2.1093399525 0.13601699471 0.5
          2.0367600918 0.30077698827 0.30471900105 1.9254900217 0.21205799282 0.5
          -4.2407898903 -0.014909300022 0.29183000326 -4.5181999207 0.028785899282 0.28230598569
          -4.4165802002 0.22745400667 0.23878499866 -4.3030099869 0.0012274599867 0.5
          2.0367600918 0.30077698827 0.30471900105 2.1093399525 0.13601699471 0.5
          1.9551000595 0.040498699993 0.28340399265 1.9254900217 0.21205799282 0.5
          2.1093399525 0.13601699471 0.5 2.0954899788 -0.062455501407 0.5
          1.9551000595 0.040498699993 0.28340399265 1.9254900217 0.21205799282 0.5
          2.3315200806 0.075631901622 0.5 2.2194900513 -0.0036427800078 0.3248629868
          2.1986699104 0.16770100594 0.18445199728 2.2269999981 0.29644799232 0.5
          2.4428100586 0.10961800069 0.26388600469 2.1986699104 0.16770100594 0.18445199728
          2.3315200806 0.075631901622 0.5 2.2194900513 -0.0036427800078 0.3248629868
          2.2194900513 -0.0036427800078 0.3248629868 2.1368100643 -0.22857700288 0.5
          2.1778399944 -0.17710599303 0.19188399613 2.0954899788 -0.062455501407 0.5
          2.3842000961 -0.1629229933 0.5 2.1368100643 -0.22857700288 0.5
          2.2194900513 -0.0036427800078 0.3248629868 2.0954899788 -0.062455501407 0.5
          2.966039896 0.21264900267 0.13400100172 2.9353599548 0.054025001824 0.25657498837
          2.9201900959 0.0039753098972 -0.016150400043 2.6889400482 0.16072399914 0.18579299748
          3.730809927 0.29602000117 0.3136009872 3.495059967 0.19994699955 0.5
          3.5066199303 0.45685198903 0.5 3.8128800392 0.20643000305 0.5
          3.730809927 0.29602000117 0.3136009872 3.495059967 0.19994699955 0.5
          3.8128800392 0.20643000305 0.5 3.657200098 0.044741101563 0.5
          3.8265800476 -0.00065459497273 0.32086899877 3.730809927 0.29602000117 0.3136009872
          3.8128800392 0.20643000305 0.5 3.657200098 0.044741101563 0.5
          3.730809927 0.29602000117 0.3136009872 3.657200098 0.044741101563 0.5
          3.8265800476 -0.00065459497273 0.32086899877 3.6032299995 -0.0550327003 0.29886201024
          3.5617899895 0.20520099998 0.20095099509 3.730809927 0.29602000117 0.3136009872
          3.8265800476 -0.00065459497273 0.32086899877 3.6032299995 -0.0550327003 0.29886201024
          3.5617899895 0.20520099998 0.20095099509 3.657200098 0.044741101563 0.5
          3.730809927 0.29602000117 0.3136009872 3.6032299995 -0.0550327003 0.29886201024
          3.5617899895 0.20520099998 0.20095099509 3.495059967 0.19994699955 0.5
          3.730809927 0.29602000117 0.3136009872 3.657200098 0.044741101563 0.5
          -0.30416700244 0.12715099752 0.5 -0.16119599342 0.084271103144 0.32078498602
          -0.11969800293 0.24129599333 0.5 -0.16925099492 0.29148900509 0.27573001385
          -0.30416700244 0.12715099752 0.5 -0.35255399346 0.016716400161 0.25871700048
          -0.16119599342 0.084271103144 0.32078498602 -0.38609901071 0.25310799479 0.3300819993
          -1.1855100393 -0.25224798918 -0.0140108997 -1.3853499889 -0.5 -0.1261779964
          -1.3964400291 -0.3062709868 0.030771600083 -1.1987999678 -0.5 -0.10932199657
          -1.3964400291 -0.3062709868 0.030771600083 -1.3853499889 -0.5 -0.1261779964
          -1.2431999445 -0.5 0.20165300369 -1.1987999678 -0.5 -0.10932199657
          -1.3964400291 -0.3062709868 0.030771600083 -1.5047199726 -0.5 0.018165400252
          -1.2431999445 -0.5 0.20165300369 -1.3853499889 -0.5 -0.1261779964
          -2.8245999813 -0.5 -0.29598200321 -2.8483600616 -0.1823129952 -0.18523199856
          -2.9510200024 -0.5 -0.15621200204 -3.0114998817 -0.30267500877 -0.29305499792
          -3.0114998817 -0.30267500877 -0.29305499792 -2.9800601006 -0.5 -0.40619799495
          -2.9510200024 -0.5 -0.15621200204 -2.8245999813 -0.5 -0.29598200321
          1.4919899702 -0.5 0.0043379599229 1.2443100214 -0.5 -0.079079799354
          1.391010046 -0.5 -0.2258079946 1.5000799894 -0.33221799135 -0.20392900705
          1.5000799894 -0.33221799135 -0.20392900705 1.4679900408 -0.23194299638 -0.032342601568
          1.4673299789 -0.16130299866 -0.30513200164 1.6971999407 -0.18535399437 -0.17042499781
          -3.4390599728 0.16396200657 -0.12648099661 -3.5893199444 0.032997198403 -0.29434099793
          -3.5974299908 0.015700999647 0.0042460002005 -3.387419939 -0.020452000201 -0.26496699452
          -3.387419939 -0.020452000201 -0.26496699452 -3.4697299004 0.28407201171 -0.298379004
          -3.4390599728 0.16396200657 -0.12648099661 -3.5893199444 0.032997198403 -0.29434099793
          -3.4697299004 0.28407201171 -0.298379004 -3.4390599728 0.16396200657 -0.12648099661
          -3.2586500645 0.20448499918 -0.21992500126 -3.387419939 -0.020452000201 -0.26496699452
          -3.5694301128 0.5 -0.27657601237 -3.5640099049 0.29994499683 -0.013255200349
          -3.6554999352 0.5 -0.12951600552 -3.5453898907 0.5 0.00052557198796
          1.5000799894 -0.33221799135 -0.20392900705 1.2443100214 -0.5 -0.079079799354
          1.391010046 -0.5 -0.2258079946 1.3097499609 -0.32079198956 -0.30054301023
          -3.4697299004 0.28407201171 -0.298379004 -3.3652899265 0.29221200943 0.018539199606
          -3.2586500645 0.20448499918 -0.21992500126 -3.4390599728 0.16396200657 -0.12648099661
          -2.7622299194 0.5 0.0010923099471 -2.9498999119 0.5 -0.14169600606
          -2.8308598995 0.31636199355 -0.103422001 -2.6490800381 0.5 -0.17990100384
          -2.8308598995 0.31636199355 -0.103422001 -2.9498999119 0.5 -0.14169600606
          -3.0080699921 0.29238799214 0.028416100889 -3.0582199097 0.31288200617 -0.29153999686
          -2.0815498829 -0.33450999856 -0.28891399503 -2.2559299469 -0.5 -0.47738999128
          -2.3032701015 -0.32206401229 -0.5 -2.2273199558 -0.5 -0.24430799484
          -2.0815498829 -0.33450999856 -0.28891399503 -2.2559299469 -0.5 -0.47738999128
          -2.2273199558 -0.5 -0.24430799484 -1.9762599468 -0.5 -0.39294800162
          -2.1227400303 -0.27935901284 -0.5 -2.2559299469 -0.5 -0.47738999128
          -2.0815498829 -0.33450999856 -0.28891399503 -1.9762599468 -0.5 -0.39294800162
          -2.0815498829 -0.33450999856 -0.28891399503 -2.1227400303 -0.27935901284 -0.5
          -1.9762599468 -0.5 -0.39294800162 -1.868549943 -0.36587700248 -0.5
          0.7291790247 -0.29900100827 0.29153800011 0.37961798906 -0.27483201027 0.3045360148
          0.58512401581 -0.18639500439 0.18318599463 0.53568398952 -0.32191199064 0.5
          -2.1227400303 -0.27935901284 -0.5 -2.2559299469 -0.5 -0.47738999128
          -2.3032701015 -0.32206401229 -0.5 -2.0815498829 -0.33450999856 -0.28891399503
          -2.1942100525 -0.27436101437 -0.10729199648 -2.0815498829 -0.33450999856 -0.28891399503
          -2.2273199558 -0.5 -0.24430799484 -2.0754799843 -0.5 -0.065173096955
          -2.1942100525 -0.27436101437 -0.10729199648 -1.9544999599 -0.19884000719 -0.16746899486
          -2.0815498829 -0.33450999856 -0.28891399503 -2.0754799843 -0.5 -0.065173096955
          -2.1682898998 -0.037599701434 -0.23476999998 -2.0815498829 -0.33450999856 -0.28891399503
          -2.1942100525 -0.27436101437 -0.10729199648 -1.9544999599 -0.19884000719 -0.16746899486
          -1.9544999599 -0.19884000719 -0.16746899486 -2.0754799843 -0.5 -0.065173096955
          -1.8892199993 -0.5 -0.034159000963 -2.0815498829 -0.33450999856 -0.28891399503
          2.9353599548 0.054025001824 0.25657498837 2.8473100662 0.22374899685 0.5
          2.8023600578 -0.042083900422 0.5 2.6219000816 -0.015453300439 0.30282199383
          2.8023600578 -0.042083900422 0.5 2.7103700638 -0.17533199489 0.17696000636
          2.9353599548 0.054025001824 0.25657498837 2.6219000816 -0.015453300439 0.30282199383
          2.8023600578 -0.042083900422 0.5 2.6795399189 -0.26569700241 0.5
          2.6219000816 -0.015453300439 0.30282199383 2.5668699741 -0.11371900141 0.5
          2.6795399189 -0.26569700241 0.5 2.4458899498 -0.25059598684 0.23923400044
          2.6219000816 -0.015453300439 0.30282199383 2.5668699741 -0.11371900141 0.5
          2.6795399189 -0.26569700241 0.5 2.4458899498 -0.25059598684 0.23923400044
          2.7103700638 -0.17533199489 0.17696000636 2.6219000816 -0.015453300439 0.30282199383
          2.6219000816 -0.015453300439 0.30282199383 2.7103700638 -0.17533199489 0.17696000636
          2.4395799637 -0.026134699583 0.038382198662 2.4458899498 -0.25059598684 0.23923400044
          2.6219000816 -0.015453300439 0.30282199383 2.4395799637 -0.026134699583 0.038382198662
          2.7103700638 -0.17533199489 0.17696000636 2.6777200699 -0.0055014099926 -0.0048864497803
          2.5668699741 -0.11371900141 0.5 2.3842000961 -0.1629229933 0.5
          2.4458899498 -0.25059598684 0.23923400044 2.6219000816 -0.015453300439 0.30282199383
          5 -0.40549901128 0.09935849905 4.814139843 -0.29069000483 0.014058699831
          4.8106999397 -0.29430899024 0.31109198928 4.8184399605 -0.5 0.27545198798
          0.70003300905 0.45500999689 -0.5 0.73280501366 0.2939440012 -0.30173701048
          0.82974797487 0.27198299766 -0.5 0.57893800735 0.29019400477 -0.5
          0.70003300905 0.45500999689 -0.5 0.89347398281 0.5 -0.40201699734
          0.82974797487 0.27198299766 -0.5 0.73280501366 0.2939440012 -0.30173701048
          0.89347398281 0.5 -0.40201699734 0.89332699776 0.23076300323 -0.16234900057
          0.82974797487 0.27198299766 -0.5 0.73280501366 0.2939440012 -0.30173701048
          0.89347398281 0.5 -0.40201699734 1.0351999998 0.5 -0.23184999824
          0.89332699776 0.23076300323 -0.16234900057 0.73280501366 0.2939440012 -0.30173701048
          0.89332699776 0.23076300323 -0.16234900057 0.71180897951 0.31379199028 -0.019653400406
          0.58461797237 0.18660899997 -0.17640599608 0.73280501366 0.2939440012 -0.30173701048
          -1.1352299452 -0.30921301246 -0.27610599995 -1.2733399868 -0.5 -0.29207199812
          -1.0007799864 -0.5 -0.1113319993 -1.1371999979 -0.5 -0.43496501446
          -1.1352299452 -0.30921301246 -0.27610599995 -1.1371999979 -0.5 -0.43496501446
          -1.0007799864 -0.5 -0.1113319993 -0.86342602968 -0.5 -0.2539960146
          -1.1352299452 -0.30921301246 -0.27610599995 -1.2733399868 -0.5 -0.29207199812
          -1.1987999678 -0.5 -0.10932199657 -1.0007799864 -0.5 -0.1113319993
          -1.1352299452 -0.30921301246 -0.27610599995 -1.1987999678 -0.5 -0.10932199657
          -1.1855100393 -0.25224798918 -0.0140108997 -1.0007799864 -0.5 -0.1113319993
          -4.3976202011 -0.16255900264 0.25912800431 -4.5130600929 -0.32579600811 0.18804700673
          -4.439789772 -0.27735000849 -0.054897699505 -4.5685501099 -0.12892700732 -0.0029087499715
          2.0320599079 -0.29999300838 -0.11793000251 2.2314100266 -0.30056801438 0.0065283500589
          2.1369900703 -0.5 -0.054951798171 1.9245300293 -0.27816799283 0.073713801801
          2.1369900703 -0.5 -0.054951798171 1.8100399971 -0.5 -0.073667302728
          2.0320599079 -0.29999300838 -0.11793000251 1.9245300293 -0.27816799283 0.073713801801
          2.1369900703 -0.5 -0.054951798171 1.8100399971 -0.5 -0.073667302728
          1.9810800552 -0.5 -0.19643999636 2.0320599079 -0.29999300838 -0.11793000251
          -0.77074998617 -0.30250000954 -0.3132340014 -0.86342602968 -0.5 -0.2539960146
          -0.78096401691 -0.28885498643 -0.091540999711 -0.79164099693 -0.5 -0.074961297214
          2.0320599079 -0.29999300838 -0.11793000251 1.9810800552 -0.5 -0.19643999636
          2.1141200066 -0.5 -0.35961300135 1.8699899912 -0.30787700415 -0.26772201061
          -0.91965401173 -0.5 0.069327197969 -0.63264602423 -0.32936599851 0.064718000591
          -0.78096401691 -0.28885498643 -0.091540999711 -0.79164099693 -0.5 -0.074961297214
          1.8699899912 -0.30787700415 -0.26772201061 1.9453500509 -0.087545797229 -0.2573390007
          2.042320013 -0.28687000275 -0.5 2.0320599079 -0.29999300838 -0.11793000251
          2.1368100643 -0.22857700288 0.5 2.0565500259 -0.31903299689 0.2972239852
          2.1778399944 -0.17710599303 0.19188399613 2.0954899788 -0.062455501407 0.5
          2.1368100643 -0.22857700288 0.5 1.9660799503 -0.216049999 0.5
          2.0565500259 -0.31903299689 0.2972239852 2.0954899788 -0.062455501407 0.5
          1.8100399971 -0.5 -0.073667302728 1.8699899912 -0.30787700415 -0.26772201061
          1.9810800552 -0.5 -0.19643999636 2.0320599079 -0.29999300838 -0.11793000251
          -0.7581089735 -0.15487499535 -0.5 -0.72751402855 0.0171670001 -0.5
          -0.59533298016 -0.13490399718 -0.5 -0.7856760025 -0.061230801046 -0.29652500153
          -4.7847399712 0.018612299114 -0.27819800377 -4.7795901299 0.30410701036 -0.28243198991
          -5 0.1004910022 -0.10199099779 -5 0.09418129921 -0.34129801393
          -4.7795901299 0.30410701036 -0.28243198991 -5 0.30918601155 -0.271468997
          -5 0.1004910022 -0.10199099779 -5 0.09418129921 -0.34129801393
          -4.7795901299 0.30410701036 -0.28243198991 -4.9698600769 0.27387401462 -0.5
          -5 0.30918601155 -0.271468997 -5 0.09418129921 -0.34129801393
          -4.7795901299 0.30410701036 -0.28243198991 -4.9698600769 0.27387401462 -0.5
          -4.9034900665 0.5 -0.2928520143 -5 0.30918601155 -0.271468997
          -4.7795901299 0.30410701036 -0.28243198991 -4.9034900665 0.5 -0.2928520143
          -4.936150074 0.5 -0.080450102687 -5 0.30918601155 -0.271468997
          -4.765540123 0.29459398985 -0.015708299354 -4.7795901299 0.30410701036 -0.28243198991
          -4.936150074 0.5 -0.080450102687 -5 0.30918601155 -0.271468997
          -4.7795901299 0.30410701036 -0.28243198991 -4.765540123 0.29459398985 -0.015708299354
          -5 0.1004910022 -0.10199099779 -5 0.30918601155 -0.271468997
          -4.8520002365 0.4750970006 -0.5 -4.9698600769 0.27387401462 -0.5
          -4.9034900665 0.5 -0.2928520143 -4.7795901299 0.30410701036 -0.28243198991
          -4.6541099548 0.5 -0.42925700545 -4.8520002365 0.4750970006 -0.5
          -4.9034900665 0.5 -0.2928520143 -4.7795901299 0.30410701036 -0.28243198991
          -0.0014522599522 0.5 -0.37516400218 -0.25742098689 0.29623898864 -0.3442530036
          -0.26246398687 0.5 -0.27721399069 -0.020521700382 0.27518200874 -0.3097819984
          -2.9205000401 0.31499001384 0.5 -3.0836999416 0.5 0.28708401322
          -3.138119936 0.5 0.48728901148 -3.012720108 0.29143700004 0.30083501339
          -2.9205000401 0.31499001384 0.5 -3.012720108 0.29143700004 0.30083501339
          -3.138119936 0.5 0.48728901148 -3.2058999538 0.30942299962 0.5
          -3.012720108 0.29143700004 0.30083501339 -3.0836999416 0.5 0.28708401322
          -3.138119936 0.5 0.48728901148 -3.2058999538 0.30942299962 0.5
          2.6250600815 -0.5 0.26846000552 2.7103700638 -0.17533199489 0.17696000636
          2.6354598999 -0.29880100489 0.010485099629 2.7222399712 -0.5 0.087961599231
          2.6250600815 -0.5 0.26846000552 2.6354598999 -0.29880100489 0.010485099629
          2.498290062 -0.5 0.11315499991 2.7222399712 -0.5 0.087961599231
          2.6250600815 -0.5 0.26846000552 2.6354598999 -0.29880100489 0.010485099629
          2.4458899498 -0.25059598684 0.23923400044 2.498290062 -0.5 0.11315499991
          2.6250600815 -0.5 0.26846000552 2.7103700638 -0.17533199489 0.17696000636
          2.4458899498 -0.25059598684 0.23923400044 2.6354598999 -0.29880100489 0.010485099629
          2.4458899498 -0.25059598684 0.23923400044 2.4389500618 -0.2577829957 -0.080456696451
          2.498290062 -0.5 0.11315499991 2.6354598999 -0.29880100489 0.010485099629
          2.498290062 -0.5 0.11315499991 2.4389500618 -0.2577829957 -0.080456696451
          2.5833399296 -0.5 -0.06280399859 2.6354598999 -0.29880100489 0.010485099629
          2.498290062 -0.5 0.11315499991 2.6354598999 -0.29880100489 0.010485099629
          2.5833399296 -0.5 -0.06280399859 2.7222399712 -0.5 0.087961599231
          2.6354598999 -0.29880100489 0.010485099629 2.5833399296 -0.5 -0.06280399859
          2.6533699036 -0.5 -0.22465799749 2.4389500618 -0.2577829957 -0.080456696451
          -3.0582199097 0.31288200617 -0.29153999686 -2.8274400234 0.051215600222 -0.3225030005
          -2.9752700329 0.12661999464 -0.5 -2.9755399227 0.12714900076 -0.1661580056
          -3.5796399117 -0.036828301847 0.30965799093 -3.2899799347 -0.19551900029 0.21153800189
          -3.4786798954 -0.29719600081 0.28423199058 -3.349050045 -0.092123396695 0.5
          -2.1809399128 -0.24249899387 0.24300700426 -2.2719900608 -0.32766199112 0.080448098481
          -2.268130064 -0.5 0.23155200481 -2.0675001144 -0.32273799181 0.069159403443
          -3.595760107 0.14106500149 0.5 -3.776599884 -0.0024208100513 0.27819898725
          -3.6482999325 -0.031938001513 0.5 -3.5796399117 -0.036828301847 0.30965799093
          0.17147399485 -0.046462800354 -0.28626099229 0.27188199759 -0.21608300507 -0.19496400654
          0.29461199045 -0.27944099903 -0.5 0.084536299109 -0.24571800232 -0.5
          -0.50226300955 0.5 0.14767700434 -0.71377199888 0.30195298791 0.28811401129
          -0.68823200464 0.30021798611 0.030239600688 -0.77020597458 0.5 0.12030699849
          -0.50226300955 0.5 0.14767700434 -0.62944000959 0.5 0.34010401368
          -0.71377199888 0.30195298791 0.28811401129 -0.77020597458 0.5 0.12030699849
          -0.50226300955 0.5 0.14767700434 -0.55149698257 0.19303299487 0.18695600331
          -0.71377199888 0.30195298791 0.28811401129 -0.62944000959 0.5 0.34010401368
          -0.50226300955 0.5 0.14767700434 -0.55149698257 0.19303299487 0.18695600331
          -0.68823200464 0.30021798611 0.030239600688 -0.71377199888 0.30195298791 0.28811401129
          -0.68823200464 0.30021798611 0.030239600688 -0.71377199888 0.30195298791 0.28811401129
          -0.55149698257 0.19303299487 0.18695600331 -0.86464500427 0.18405400217 0.1796399951
          -0.77020597458 0.5 0.12030699849 -0.79987299442 0.5 0.33046600223
          -0.62944000959 0.5 0.34010401368 -0.71377199888 0.30195298791 0.28811401129
          -0.79987299442 0.5 0.33046600223 -0.62944000959 0.5 0.34010401368
          -0.71377199888 0.30195298791 0.28811401129 -0.67730498314 0.46419098973 0.5
          -0.79987299442 0.5 0.33046600223 -0.71377199888 0.30195298791 0.28811401129
          -0.7510010004 0.25560700893 0.5 -0.67730498314 0.46419098973 0.5
          -5 -0.004447159823 0.13623799384 -5 0.15884299576 0.21330599487
          -4.6812400818 0.14698000252 0.1767770052 -4.8052501678 -0.030253799632 0.27854898572
          -4.8052501678 -0.030253799632 0.27854898572 -4.6812400818 0.14698000252 0.1767770052
          -4.7674899101 0.33730000257 0.27226099372 -5 0.15884299576 0.21330599487
          -1.3727099895 0.30601900816 0.28291600943 -1.45697999 0.29096999764 0.5
          -1.29381001 0.12503300607 0.31571400166 -1.5232800245 0.099855400622 0.30515301228
          -0.7510010004 0.25560700893 0.5 -0.71377199888 0.30195298791 0.28811401129
          -0.54225701094 0.182366997 0.5 -0.67730498314 0.46419098973 0.5
          -0.71377199888 0.30195298791 0.28811401129 -0.54225701094 0.182366997 0.5
          -0.70620900393 0.037291798741 0.28922000527 -0.7510010004 0.25560700893 0.5
          -0.71377199888 0.30195298791 0.28811401129 -0.62944000959 0.5 0.34010401368
          -0.54225701094 0.182366997 0.5 -0.67730498314 0.46419098973 0.5
          -0.71377199888 0.30195298791 0.28811401129 -0.54225701094 0.182366997 0.5
          -0.62944000959 0.5 0.34010401368 -0.46542999148 0.5 0.387439996
          -4.2024998665 0.29241999984 0.027058599517 -4.2864198685 0.30046600103 -0.30744600296
          -4.3864398003 0.25989100337 -0.089046299458 -4.1503901482 0.15257999301 -0.18268600106
          0.37961798906 -0.27483201027 0.3045360148 0.25244501233 -0.012676700018 0.29410201311
          0.3798109889 -0.11770299822 0.17650899291 0.47176000476 -0.12052799761 0.5
          0.3798109889 -0.11770299822 0.17650899291 0.12687399983 0.024941600859 0.019101899117
          0.3682860136 0.00067014299566 0.0082637900487 0.25244501233 -0.012676700018 0.29410201311
          0.25244501233 -0.012676700018 0.29410201311 0.3682860136 0.00067014299566 0.0082637900487
          0.3798109889 -0.11770299822 0.17650899291 0.46630200744 0.046083901078 0.25881299376
          0.3798109889 -0.11770299822 0.17650899291 0.36774501204 -0.27583301067 0.050296399742
          0.58827602863 -0.023083500564 0.03204099834 0.3682860136 0.00067014299566 0.0082637900487
          0.58827602863 -0.023083500564 0.03204099834 0.3798109889 -0.11770299822 0.17650899291
          0.3682860136 0.00067014299566 0.0082637900487 0.46630200744 0.046083901078 0.25881299376
          0.15296399593 -0.18104599416 0.18370200694 0.12687399983 0.024941600859 0.019101899117
          0.3798109889 -0.11770299822 0.17650899291 0.25244501233 -0.012676700018 0.29410201311
          0.15296399593 -0.18104599416 0.18370200694 0.25244501233 -0.012676700018 0.29410201311
          0.3798109889 -0.11770299822 0.17650899291 0.37961798906 -0.27483201027 0.3045360148
          -4.1248002052 0.32227998972 0.33130601048 -4.1479997635 0.1524810046 0.18773500621
          -4.2024998665 0.29241999984 0.027058599517 -4.4165802002 0.22745400667 0.23878499866
          -4.1248002052 0.32227998972 0.33130601048 -4.2024998665 0.29241999984 0.027058599517
          -4.261590004 0.5 0.28367200494 -4.4165802002 0.22745400667 0.23878499866
          -4.2024998665 0.29241999984 0.027058599517 -4.1248002052 0.32227998972 0.33130601048
          -4.261590004 0.5 0.28367200494 -4.0642700195 0.5 0.20991900563
          -3.9890100956 0.24387900531 0.0062287501059 -4.0642700195 0.5 0.20991900563
          -4.1248002052 0.32227998972 0.33130601048 -4.2024998665 0.29241999984 0.027058599517
          -3.9890100956 0.24387900531 0.0062287501059 -4.2024998665 0.29241999984 0.027058599517
          -4.1248002052 0.32227998972 0.33130601048 -4.1479997635 0.1524810046 0.18773500621
          -4.2024998665 0.29241999984 0.027058599517 -4.0642700195 0.5 0.20991900563
          -4.0201997757 0.5 0.0039351000451 -3.9890100956 0.24387900531 0.0062287501059
          -1.2071399689 0.32934400439 -0.5 -0.92764699459 0.27740699053 -0.26456698775
          -1.1753100157 0.18597100675 -0.21642799675 -1.0104800463 0.5 -0.2601659894
          3.4532198906 -0.27570098639 -0.28086999059 3.7514400482 -0.26456600428 -0.5
          3.7846400738 -0.3112359941 -0.2879639864 3.6450901031 -0.17131699622 -0.19211299717
          -0.92764699459 0.27740699053 -0.26456698775 -1.0104800463 0.5 -0.2601659894
          -0.89532899857 0.5 -0.11820399761 -1.0172100067 0.25485399365 -0.020222399384
          3.4532198906 -0.27570098639 -0.28086999059 3.4951400757 -0.11613500118 -0.5
          3.7514400482 -0.26456600428 -0.5 3.7685399055 -0.11422099918 -0.34736299515
          3.4951400757 -0.11613500118 -0.5 3.7148199081 0.013914800249 -0.5
          3.7514400482 -0.26456600428 -0.5 3.7685399055 -0.11422099918 -0.34736299515
          3.6228199005 0.064896397293 -0.30187800527 3.7685399055 -0.11422099918 -0.34736299515
          3.8543400764 -0.043197199702 -0.061682298779 3.7566299438 0.15342700481 -0.14512400329
          -1.6463500261 0.28474900126 -0.30618798733 -1.7420699596 0.2584669888 -0.11043199897
          -1.5486299992 0.27752000093 0.017110800371 -1.4892100096 0.17613700032 -0.19808200002
          -1.6463500261 0.28474900126 -0.30618798733 -1.7420699596 0.2584669888 -0.11043199897
          -1.4892100096 0.17613700032 -0.19808200002 -1.7309900522 0.022700900212 -0.2696749866
          -1.6463500261 0.28474900126 -0.30618798733 -1.7309900522 0.022700900212 -0.2696749866
          -1.4892100096 0.17613700032 -0.19808200002 -1.6108299494 0.078509502113 -0.5
          -1.6463500261 0.28474900126 -0.30618798733 -1.4892100096 0.17613700032 -0.19808200002
          -1.3366099596 0.20833599567 -0.5 -1.6108299494 0.078509502113 -0.5
          1.818590045 0.3155849874 0.32314199209 1.9254900217 0.21205799282 0.5
          2.0367600918 0.30077698827 0.30471900105 1.9551000595 0.040498699993 0.28340399265
          1.818590045 0.3155849874 0.32314199209 2.0367600918 0.30077698827 0.30471900105
          1.9609899521 0.27691298723 0.076514601707 1.9551000595 0.040498699993 0.28340399265
          2.0367600918 0.30077698827 0.30471900105 1.818590045 0.3155849874 0.32314199209
          2.0662400723 0.5 0.45344299078 1.9254900217 0.21205799282 0.5
          1.818590045 0.3155849874 0.32314199209 1.8041000366 0.5 0.48033800721
          2.0662400723 0.5 0.45344299078 1.9254900217 0.21205799282 0.5
          1.818590045 0.3155849874 0.32314199209 1.8041000366 0.5 0.48033800721
          1.9254900217 0.21205799282 0.5 1.688740015 0.32006499171 0.5
          1.818590045 0.3155849874 0.32314199209 1.688740015 0.32006499171 0.5
          1.9254900217 0.21205799282 0.5 1.6280800104 0.11417599767 0.5
          1.818590045 0.3155849874 0.32314199209 1.8041000366 0.5 0.48033800721
          1.688740015 0.32006499171 0.5 1.626060009 0.5 0.34106299281
          1.626060009 0.5 0.34106299281 1.4897999763 0.29271999002 0.26752799749
          1.688740015 0.32006499171 0.5 1.818590045 0.3155849874 0.32314199209
          -0.53887498379 -0.034443799406 0.20534600317 -0.35255399346 0.016716400161 0.25871700048
          -0.54225701094 0.182366997 0.5 -0.55149698257 0.19303299487 0.18695600331
          -1.5486299992 0.27752000093 0.017110800371 -1.6142400503 0.5 0.032841600478
          -1.8121700287 0.32682698965 0.085832998157 -1.7420699596 0.2584669888 -0.11043199897
          -1.5486299992 0.27752000093 0.017110800371 -1.6142400503 0.5 0.032841600478
          -1.6647800207 0.24374599755 0.22540199757 -1.8121700287 0.32682698965 0.085832998157
          -1.8121700287 0.32682698965 0.085832998157 -1.7420699596 0.2584669888 -0.11043199897
          -1.6142400503 0.5 0.032841600478 -1.8758599758 0.5 -0.063933096826
          -1.8656400442 0.28522598743 -0.2969610095 -2.0428700447 0.13684900105 -0.5
          -1.9522600174 -0.011583000422 -0.29229301214 -1.8528900146 0.074574902654 -0.5
          -1.3192800283 -0.11339899898 0.070827797055 -1.1855100393 -0.25224798918 -0.0140108997
          -1.3964400291 -0.3062709868 0.030771600083 -1.3444800377 -0.30236798525 0.28137201071
          -1.334980011 -0.066682696342 0.27562999725 -1.5096600056 -0.035843800753 0.024828599766
          -1.5302300453 -0.20296399295 0.1751369983 -1.3192800283 -0.11339899898 0.070827797055
          -1.8656400442 0.28522598743 -0.2969610095 -1.9816099405 0.27960699797 -0.5
          -2.0428700447 0.13684900105 -0.5 -1.8528900146 0.074574902654 -0.5
          -1.8121700287 0.32682698965 0.085832998157 -1.9655499458 0.017111200839 0.015656199306
          -1.730610013 -0.00066968100145 -0.0049977498129 -1.7420699596 0.2584669888 -0.11043199897
          1.0786999464 -0.15874500573 -0.5 1.0735499859 -0.2803800106 -0.2859480083
          0.93065899611 -0.030296299607 -0.23989999294 1.139539957 -0.036767199636 -0.30390501022
          0.42797398567 -0.5 -0.20191599429 0.2626529932 -0.5 -0.065027400851
          0.27028900385 -0.5 -0.35754400492 0.27188199759 -0.21608300507 -0.19496400654
          0.27028900385 -0.5 -0.35754400492 0.2626529932 -0.5 -0.065027400851
          0.12759399414 -0.5 -0.23184600472 0.27188199759 -0.21608300507 -0.19496400654
          0.27028900385 -0.5 -0.35754400492 0.27188199759 -0.21608300507 -0.19496400654
          0.12759399414 -0.5 -0.23184600472 0.02034159936 -0.29206499457 -0.27554398775
          1.2553399801 0.02869570069 -0.044535700232 1.3415499926 0.046351000667 -0.2966940105
          1.2041200399 0.21308499575 -0.18568199873 1.139539957 -0.036767199636 -0.30390501022
          0.42797398567 -0.5 -0.20191599429 0.27028900385 -0.5 -0.35754400492
          0.52369099855 -0.25701698661 -0.29001700878 0.27188199759 -0.21608300507 -0.19496400654
          0.02034159936 -0.29206499457 -0.27554398775 0.1349440068 -0.5 -0.49112400413
          0.12759399414 -0.5 -0.23184600472 0.27028900385 -0.5 -0.35754400492
          0.084536299109 -0.24571800232 -0.5 0.1349440068 -0.5 -0.49112400413
          0.02034159936 -0.29206499457 -0.27554398775 0.27028900385 -0.5 -0.35754400492
          1.2096600533 0.029559800401 -0.5 1.3415499926 0.046351000667 -0.2966940105
          1.2840600014 -0.15874500573 -0.5 1.139539957 -0.036767199636 -0.30390501022
          4.8187298775 -0.5 -0.29728299379 5 -0.29155600071 -0.27424201369
          5 -0.49873501062 -0.32859501243 4.9067702293 -0.5 -0.13576300442
          -4.5338001251 0.5 0.29403999448 -4.6425299644 0.5 0.1688580066
          -4.7674899101 0.33730000257 0.27226099372 -4.5957798958 0.24809199572 0.32881501317
          -0.028405899182 0.038570299745 -0.28863999248 -0.169242993 0.019168399274 -0.0072063799016
          -0.014450499788 -0.12391400337 -0.11072800308 -0.24800799787 0.0088232699782 -0.29918900132
          -0.028405899182 0.038570299745 -0.28863999248 -0.18946300447 0.17974199355 -0.1773750037
          -0.169242993 0.019168399274 -0.0072063799016 -0.24800799787 0.0088232699782 -0.29918900132
          -0.24800799787 0.0088232699782 -0.29918900132 -0.12994900346 0.14103500545 -0.5
          -0.028405899182 0.038570299745 -0.28863999248 -0.18946300447 0.17974199355 -0.1773750037
          2.8429698944 0.28180000186 -0.27394500375 2.6394400597 0.5 -0.0548616983
          2.8604700565 0.28147599101 -0.024887500331 2.6540100574 0.30316799879 0.029222900048
          2.8429698944 0.28180000186 -0.27394500375 2.6394400597 0.5 -0.0548616983
          2.6540100574 0.30316799879 0.029222900048 2.6477799416 0.16645799577 -0.17383100092
          2.9283499718 0.5 0.14330999553 2.6540100574 0.30316799879 0.029222900048
          2.8604700565 0.28147599101 -0.024887500331 2.6394400597 0.5 -0.0548616983
          -0.36137199402 0.054711200297 -0.5 -0.24800799787 0.0088232699782 -0.29918900132
          -0.46267700195 -0.020818000659 -0.27643701434 -0.47644600272 0.21734400094 -0.22011299431
          -0.46267700195 -0.020818000659 -0.27643701434 -0.24800799787 0.0088232699782 -0.29918900132
          -0.40286201239 -0.0046954802237 -0.0054140798748 -0.47644600272 0.21734400094 -0.22011299431
          -0.29398798943 -0.19200000167 -0.2282319963 -0.24800799787 0.0088232699782 -0.29918900132
          -0.40286201239 -0.0046954802237 -0.0054140798748 -0.46267700195 -0.020818000659 -0.27643701434
          -0.29398798943 -0.19200000167 -0.2282319963 -0.24800799787 0.0088232699782 -0.29918900132
          -0.169242993 0.019168399274 -0.0072063799016 -0.40286201239 -0.0046954802237 -0.0054140798748
          -0.24800799787 0.0088232699782 -0.29918900132 -0.169242993 0.019168399274 -0.0072063799016
          -0.014450499788 -0.12391400337 -0.11072800308 -0.29398798943 -0.19200000167 -0.2282319963
          -0.24800799787 0.0088232699782 -0.29918900132 -0.18946300447 0.17974199355 -0.1773750037
          -0.169242993 0.019168399274 -0.0072063799016 -0.40286201239 -0.0046954802237 -0.0054140798748
          -0.24800799787 0.0088232699782 -0.29918900132 -0.18946300447 0.17974199355 -0.1773750037
          -0.40286201239 -0.0046954802237 -0.0054140798748 -0.47644600272 0.21734400094 -0.22011299431
          2.9283499718 0.5 0.14330999553 2.6293599606 0.5 0.17279799283
          2.6540100574 0.30316799879 0.029222900048 2.6394400597 0.5 -0.0548616983
          0.36774501204 -0.27583301067 0.050296399742 0.27188199759 -0.21608300507 -0.19496400654
          0.57815998793 -0.31825500727 -0.050177000463 0.48660299182 -0.097960598767 -0.14581799507
          1.9245300293 -0.27816799283 0.073713801801 2.0565500259 -0.31903299689 0.2972239852
          1.8512899876 -0.25720700622 0.29749301076 1.8789199591 -0.10240700096 0.16247299314
          -4.2407898903 -0.014909300022 0.29183000326 -4.3030099869 0.0012274599867 0.5
          -4.237349987 -0.30583998561 0.5 -4.3976202011 -0.16255900264 0.25912800431
          -4.2407898903 -0.014909300022 0.29183000326 -4.3976202011 -0.16255900264 0.25912800431
          -4.237349987 -0.30583998561 0.5 -4.0945601463 -0.28051298857 0.31798601151
          3.6328399181 -0.30484598875 0.056098300964 3.5628299713 -0.5 -0.19047999382
          3.4506099224 -0.25270500779 -0.04623780027 3.4999299049 -0.5 -8.444820196e-06
          -4.0945601463 -0.28051298857 0.31798601151 -4.0238199234 -0.033451199532 0.28527000546
          -4.2407898903 -0.014909300022 0.29183000326 -4.1423802376 -0.18350799382 0.11192400008
          -4.2659602165 0.28228399158 0.5 -4.1479997635 0.1524810046 0.18773500621
          -4.4165802002 0.22745400667 0.23878499866 -4.2407898903 -0.014909300022 0.29183000326
          0.15296399593 -0.18104599416 0.18370200694 0.3798109889 -0.11770299822 0.17650899291
          0.36774501204 -0.27583301067 0.050296399742 0.37961798906 -0.27483201027 0.3045360148
          -4.2407898903 -0.014909300022 0.29183000326 -4.411260128 -0.00020594299713 -0.0010824199999
          -4.4165802002 0.22745400667 0.23878499866 -4.5181999207 0.028785899282 0.28230598569
          -1.1855100393 -0.25224798918 -0.0140108997 -1.3521399498 -0.29692700505 -0.29181501269
          -1.1987999678 -0.5 -0.10932199657 -1.1352299452 -0.30921301246 -0.27610599995
          -1.1855100393 -0.25224798918 -0.0140108997 -1.3853499889 -0.5 -0.1261779964
          -1.1987999678 -0.5 -0.10932199657 -1.3521399498 -0.29692700505 -0.29181501269
          -1.3521399498 -0.29692700505 -0.29181501269 -1.3964400291 -0.3062709868 0.030771600083
          -1.1855100393 -0.25224798918 -0.0140108997 -1.3853499889 -0.5 -0.1261779964
          -1.1352299452 -0.30921301246 -0.27610599995 -1.3521399498 -0.29692700505 -0.29181501269
          -1.1722400188 -0.078797601163 -0.24050499499 -1.4028300047 -0.15640300512 -0.13328300416
          -1.4028300047 -0.15640300512 -0.13328300416 -1.3521399498 -0.29692700505 -0.29181501269
          -1.1722400188 -0.078797601163 -0.24050499499 -1.3341200352 0.058667398989 -0.30476099253
          -1.4028300047 -0.15640300512 -0.13328300416 -1.5251499414 -0.076651901007 -0.31482899189
          -1.3521399498 -0.29692700505 -0.29181501269 -1.3341200352 0.058667398989 -0.30476099253
          -3.315500021 0.091922298074 0.5 -3.349050045 -0.092123396695 0.5
          -3.1326100826 -0.026751099154 0.30142500997 -3.40102005 0.049610700458 0.26974400878
          -3.315500021 0.091922298074 0.5 -3.177740097 0.19153399765 0.19352599978
          -3.3868999481 0.28687500954 0.25560098886 -3.40102005 0.049610700458 0.26974400878
          -2.6997199059 -0.29153099656 -0.5 -2.8245999813 -0.5 -0.29598200321
          -2.8483600616 -0.1823129952 -0.18523199856 -2.6132099628 -0.29757499695 -0.26779401302
          -1.3521399498 -0.29692700505 -0.29181501269 -1.3610700369 -0.5 -0.49804601073
          -1.4707000256 -0.5 -0.29291000962 -1.2733399868 -0.5 -0.29207199812
          -1.3521399498 -0.29692700505 -0.29181501269 -1.3610700369 -0.5 -0.49804601073
          -1.2733399868 -0.5 -0.29207199812 -1.2095999718 -0.31749498844 -0.5
          -0.53925698996 -0.14979499578 0.041408799589 -0.81901800632 -0.064964897931 -0.069114297628
          -0.78096401691 -0.28885498643 -0.091540999711 -0.6270070076 -0.18018999696 -0.18880400062
          1.5954600573 -0.5 -0.26120200753 1.3746500015 -0.33837598562 -0.5
          1.5000799894 -0.33221799135 -0.20392900705 1.391010046 -0.5 -0.2258079946
          -1.1753100157 0.18597100675 -0.21642799675 -1.3414299488 0.2976360023 -0.30167099833
          -1.3262499571 0.2814899981 -0.050565201789 -1.4892100096 0.17613700032 -0.19808200002
          -1.4892100096 0.17613700032 -0.19808200002 -1.3414299488 0.2976360023 -0.30167099833
          -1.3341200352 0.058667398989 -0.30476099253 -1.1753100157 0.18597100675 -0.21642799675
          -1.4892100096 0.17613700032 -0.19808200002 -1.3366099596 0.20833599567 -0.5
          -1.3341200352 0.058667398989 -0.30476099253 -1.3414299488 0.2976360023 -0.30167099833
          -3.1307299137 0.1212079972 0.5 -3.349050045 -0.092123396695 0.5
          -3.1326100826 -0.026751099154 0.30142500997 -3.315500021 0.091922298074 0.5
          -1.2071399689 0.32934400439 -0.5 -1.3414299488 0.2976360023 -0.30167099833
          -1.1828099489 0.5 -0.19919799268 -1.1753100157 0.18597100675 -0.21642799675
          -1.1828099489 0.5 -0.19919799268 -1.3414299488 0.2976360023 -0.30167099833
          -1.3262499571 0.2814899981 -0.050565201789 -1.1753100157 0.18597100675 -0.21642799675
          -1.1828099489 0.5 -0.19919799268 -1.3414299488 0.2976360023 -0.30167099833
          -1.4628200531 0.5 -0.09861010313 -1.3262499571 0.2814899981 -0.050565201789
          -1.1828099489 0.5 -0.19919799268 -1.4210100174 0.5 -0.29471999407
          -1.4628200531 0.5 -0.09861010313 -1.3414299488 0.2976360023 -0.30167099833
          0.3679780066 0.042948998511 -0.26218301058 0.12687399983 0.024941600859 0.019101899117
          0.3682860136 0.00067014299566 0.0082637900487 0.17147399485 -0.046462800354 -0.28626099229
          0.3679780066 0.042948998511 -0.26218301058 0.14069800079 0.16885900497 -0.17604699731
          0.12687399983 0.024941600859 0.019101899117 0.17147399485 -0.046462800354 -0.28626099229
          1.4891799688 -0.27188199759 0.26980000734 1.3733700514 -0.33255699277 0.11544699967
          1.4679900408 -0.23194299638 -0.032342601568 1.298789978 -0.15092399716 0.16408100724
          0.086851902306 0.090062998235 -0.5 0.17147399485 -0.046462800354 -0.28626099229
          0.20413899422 0.23499399424 -0.5 0.3679780066 0.042948998511 -0.26218301058
          1.4891799688 -0.27188199759 0.26980000734 1.1263699532 -0.31314399838 0.27022001147
          1.3733700514 -0.33255699277 0.11544699967 1.298789978 -0.15092399716 0.16408100724
          0.17147399485 -0.046462800354 -0.28626099229 0.086851902306 0.090062998235 -0.5
          0.14069800079 0.16885900497 -0.17604699731 -0.028405899182 0.038570299745 -0.28863999248
          0.14069800079 0.16885900497 -0.17604699731 -0.028405899182 0.038570299745 -0.28863999248
          -0.014450499788 -0.12391400337 -0.11072800308 0.17147399485 -0.046462800354 -0.28626099229
          0.17147399485 -0.046462800354 -0.28626099229 0.14069800079 0.16885900497 -0.17604699731
          0.12687399983 0.024941600859 0.019101899117 -0.014450499788 -0.12391400337 -0.11072800308
          -0.47420999408 -0.29338499904 -0.29220598936 -0.59533298016 -0.13490399718 -0.5
          -0.46434998512 -0.23358699679 -0.5 -0.46267700195 -0.020818000659 -0.27643701434
          1.9245300293 -0.27816799283 0.073713801801 2.0565500259 -0.31903299689 0.2972239852
          1.8789199591 -0.10240700096 0.16247299314 2.1778399944 -0.17710599303 0.19188399613
          0.17147399485 -0.046462800354 -0.28626099229 0.086851902306 0.090062998235 -0.5
          -0.028405899182 0.038570299745 -0.28863999248 -0.01470979955 -0.077135197818 -0.5
          0.17147399485 -0.046462800354 -0.28626099229 -0.01470979955 -0.077135197818 -0.5
          0.02034159936 -0.29206499457 -0.27554398775 0.084536299109 -0.24571800232 -0.5
          -2.8607199192 0.16806200147 0.1988620013 -2.8269600868 0.33847901225 0.099728599191
          -3.0080699921 0.29238799214 0.028416100889 -2.8699100018 0.034952599555 0.013808799908
          -2.8607199192 0.16806200147 0.1988620013 -2.6367399693 0.26534798741 0.078260503709
          -2.8269600868 0.33847901225 0.099728599191 -2.8699100018 0.034952599555 0.013808799908
          3.730230093 0.5 0.19785399735 3.730809927 0.29602000117 0.3136009872
          3.9605000019 0.5 0.34884899855 3.9115200043 0.5 0.15832599998
          -3.0582199097 0.31288200617 -0.29153999686 -2.9230499268 0.5 -0.3529239893
          -2.8458900452 0.23675900698 -0.5 -2.8308899403 0.31933999062 -0.31058201194
          3.6093900204 0.31306898594 -0.027008600533 3.867939949 0.29484701157 -0.023631099612
          3.6711499691 0.31469801068 -0.29238000512 3.7566299438 0.15342700481 -0.14512400329
          3.6093900204 0.31306898594 -0.027008600533 3.6606800556 0.057222399861 0.047008000314
          3.867939949 0.29484701157 -0.023631099612 3.7566299438 0.15342700481 -0.14512400329
          3.6093900204 0.31306898594 -0.027008600533 3.6606800556 0.057222399861 0.047008000314
          3.8664000034 0.19483299553 0.16909499466 3.867939949 0.29484701157 -0.023631099612
          3.867939949 0.29484701157 -0.023631099612 3.6093900204 0.31306898594 -0.027008600533
          3.730230093 0.5 0.19785399735 3.8664000034 0.19483299553 0.16909499466
          3.867939949 0.29484701157 -0.023631099612 3.6606800556 0.057222399861 0.047008000314
          3.8664000034 0.19483299553 0.16909499466 3.7566299438 0.15342700481 -0.14512400329
          3.6711499691 0.31469801068 -0.29238000512 3.7566299438 0.15342700481 -0.14512400329
          3.867939949 0.29484701157 -0.023631099612 4.0157899857 0.23598599434 -0.23627699912
          3.6711499691 0.31469801068 -0.29238000512 3.867939949 0.29484701157 -0.023631099612
          3.9085800648 0.5 -0.15719300508 4.0157899857 0.23598599434 -0.23627699912
          3.867939949 0.29484701157 -0.023631099612 3.803839922 0.5 0.0072177099064
          3.6711499691 0.31469801068 -0.29238000512 3.9085800648 0.5 -0.15719300508
          -3.889359951 -0.35665598512 -0.5 -3.7279200554 -0.31415998936 -0.27874299884
          -3.8310699463 -0.5 -0.38916000724 -3.9185600281 -0.21505500376 -0.20922599733
          -4.0849199295 -0.30423098803 -0.31639400125 -3.8106400967 -0.5 -0.18066500127
          -3.8310699463 -0.5 -0.38916000724 -4.0541300774 -0.5 -0.16820600629
          -4.0849199295 -0.30423098803 -0.31639400125 -3.8310699463 -0.5 -0.38916000724
          -4.1110301018 -0.5 -0.40642899275 -4.0541300774 -0.5 -0.16820600629
          -4.0849199295 -0.30423098803 -0.31639400125 -4.0541300774 -0.5 -0.16820600629
          -4.1110301018 -0.5 -0.40642899275 -4.2746400833 -0.5 -0.25492700934
          -2.011950016 0.41811999679 0.5 -2.2189500332 0.32305899262 0.5
          -2.0332100391 0.28143399954 0.34608799219 -2.0084600449 0.5 0.30924999714
          -2.8985300064 0.5 0.19352899492 -2.8269600868 0.33847901225 0.099728599191
          -2.7622299194 0.5 0.0010923099471 -2.9498999119 0.5 -0.14169600606
          -1.6647800207 0.24374599755 0.22540199757 -1.45697999 0.29096999764 0.5
          -1.5232800245 0.099855400622 0.30515301228 -1.6577099562 0.12280199677 0.5
          -0.6270070076 -0.18018999696 -0.18880400062 -0.74285399914 0.13776800036 -0.12904399633
          -0.63783198595 0.084412999451 -0.319272995 -0.62403798103 0.035430200398 0.037675399333
          -1.5232800245 0.099855400622 0.30515301228 -1.6647800207 0.24374599755 0.22540199757
          -1.6999100447 -0.016917800531 0.25771600008 -1.5096600056 -0.035843800753 0.024828599766
          -1.5232800245 0.099855400622 0.30515301228 -1.6577099562 0.12280199677 0.5
          -1.5496799946 -0.11574400216 0.5 -1.6999100447 -0.016917800531 0.25771600008
          -1.432109952 0.071380198002 0.5 -1.6577099562 0.12280199677 0.5
          -1.5496799946 -0.11574400216 0.5 -1.5232800245 0.099855400622 0.30515301228
          -1.5232800245 0.099855400622 0.30515301228 -1.45697999 0.29096999764 0.5
          -1.432109952 0.071380198002 0.5 -1.6577099562 0.12280199677 0.5
          -2.2611498833 -0.21604500711 -0.31563100219 -2.4834799767 -0.27802801132 -0.5
          -2.4208400249 -0.17098300159 -0.17608100176 -2.6132099628 -0.29757499695 -0.26779401302
          -2.2611498833 -0.21604500711 -0.31563100219 -2.1227400303 -0.27935901284 -0.5
          -2.1682898998 -0.037599701434 -0.23476999998 -2.0386500359 -0.018439799547 -0.5
          -2.2611498833 -0.21604500711 -0.31563100219 -2.1227400303 -0.27935901284 -0.5
          -2.0815498829 -0.33450999856 -0.28891399503 -2.1682898998 -0.037599701434 -0.23476999998
          -2.2611498833 -0.21604500711 -0.31563100219 -2.0815498829 -0.33450999856 -0.28891399503
          -2.1942100525 -0.27436101437 -0.10729199648 -2.1682898998 -0.037599701434 -0.23476999998
          -2.2611498833 -0.21604500711 -0.31563100219 -2.0815498829 -0.33450999856 -0.28891399503
          -2.2273199558 -0.5 -0.24430799484 -2.1942100525 -0.27436101437 -0.10729199648
          -2.2611498833 -0.21604500711 -0.31563100219 -2.2273199558 -0.5 -0.24430799484
          -2.461810112 -0.5 -0.23160800338 -2.1942100525 -0.27436101437 -0.10729199648
          1.4891799688 -0.27188199759 0.26980000734 1.2525800467 -0.23895399272 0.5
          1.2891700268 0.025188799948 0.31899100542 1.3978899717 -0.017269099131 0.5
          1.4891799688 -0.27188199759 0.26980000734 1.2891700268 0.025188799948 0.31899100542
          1.298789978 -0.15092399716 0.16408100724 1.4909499884 0.035039100796 0.2443370074
          3.8067100048 -0.5 0.09490519762 3.8753499985 -0.34310999513 0.22761000693
          3.7603299618 -0.5 0.32295900583 3.6361598969 -0.5 0.14722600579
          3.8067100048 -0.5 0.09490519762 3.8753499985 -0.34310999513 0.22761000693
          3.9721999168 -0.5 0.36053299904 3.7603299618 -0.5 0.32295900583
          3.7603299618 -0.5 0.32295900583 3.8753499985 -0.34310999513 0.22761000693
          3.9721999168 -0.5 0.36053299904 3.841520071 -0.36154899001 0.5
          3.7603299618 -0.5 0.32295900583 3.678839922 -0.28315201402 0.29635599256
          3.8753499985 -0.34310999513 0.22761000693 3.841520071 -0.36154899001 0.5
          3.8753499985 -0.34310999513 0.22761000693 3.678839922 -0.28315201402 0.29635599256
          3.7603299618 -0.5 0.32295900583 3.6361598969 -0.5 0.14722600579
          1.3350299597 0.5 0.26320800185 1.2936199903 0.35917899013 0.5
          1.4897999763 0.29271999002 0.26752799749 1.142539978 0.300906986 0.29215401411
          1.1859600544 0.5 0.33510899544 1.142539978 0.300906986 0.29215401411
          1.1301300526 0.30475699902 0.5 1.2936199903 0.35917899013 0.5
          3.8265800476 -0.00065459497273 0.32086899877 3.657200098 0.044741101563 0.5
          3.8187499046 -0.026935700327 0.5 3.6032299995 -0.0550327003 0.29886201024
          3.8265800476 -0.00065459497273 0.32086899877 3.8128800392 0.20643000305 0.5
          3.8187499046 -0.026935700327 0.5 3.657200098 0.044741101563 0.5
          3.8753499985 -0.34310999513 0.22761000693 4.039850235 -0.20272299647 0.21478900313
          3.9721999168 -0.5 0.36053299904 4.0639600754 -0.30339500308 0.5
          4.3579602242 -0.5 -0.20988300443 4.1762099266 -0.5 -0.073627002537
          4.2013001442 -0.5 -0.3026599884 4.1566100121 -0.27463600039 -0.28568801284
          -0.48361599445 -0.5 -0.22838500142 -0.77074998617 -0.30250000954 -0.3132340014
          -0.47420999408 -0.29338499904 -0.29220598936 -0.59884798527 -0.5 -0.081100203097
          -0.47420999408 -0.29338499904 -0.29220598936 -0.77074998617 -0.30250000954 -0.3132340014
          -0.6270070076 -0.18018999696 -0.18880400062 -0.59884798527 -0.5 -0.081100203097
          -0.56736600399 -0.5 -0.39558899403 -0.38922300935 -0.43621999025 -0.5
          -0.46434998512 -0.23358699679 -0.5 -0.63522601128 -0.32412400842 -0.5
          -0.29698100686 -0.33138298988 0.28727200627 -0.17885400355 -0.17817400396 0.19088800251
          -0.35255399346 0.016716400161 0.25871700048 -0.47073799372 -0.22246700525 0.21898700297
          -0.47073799372 -0.22246700525 0.21898700297 -0.42740899324 -0.30482000113 -0.02907329984
          -0.29698100686 -0.33138298988 0.28727200627 -0.17885400355 -0.17817400396 0.19088800251
          -0.47073799372 -0.22246700525 0.21898700297 -0.42740899324 -0.30482000113 -0.02907329984
          -0.3753170073 -0.5 0.14234599471 -0.29698100686 -0.33138298988 0.28727200627
          -0.48325100541 -0.5 0.32274898887 -0.47073799372 -0.22246700525 0.21898700297
          -0.3753170073 -0.5 0.14234599471 -0.29698100686 -0.33138298988 0.28727200627
          -0.48325100541 -0.5 0.32274898887 -0.29698100686 -0.33138298988 0.28727200627
          -0.3753170073 -0.5 0.14234599471 -0.16431899369 -0.5 0.31346601248
          -0.48325100541 -0.5 0.32274898887 -0.38991400599 -0.43623900414 0.5
          -0.29698100686 -0.33138298988 0.28727200627 -0.16431899369 -0.5 0.31346601248
          -0.38991400599 -0.43623900414 0.5 -0.29698100686 -0.33138298988 0.28727200627
          -0.16431899369 -0.5 0.31346601248 -0.20710499585 -0.46618500352 0.5
          -0.38991400599 -0.43623900414 0.5 -0.28134599328 -0.29646700621 0.5
          -0.29698100686 -0.33138298988 0.28727200627 -0.20710499585 -0.46618500352 0.5
          -0.20710499585 -0.46618500352 0.5 -0.28134599328 -0.29646700621 0.5
          -0.29698100686 -0.33138298988 0.28727200627 -0.10501199961 -0.31161299348 0.5
          -0.20710499585 -0.46618500352 0.5 -0.29698100686 -0.33138298988 0.28727200627
          -0.16431899369 -0.5 0.31346601248 -0.10501199961 -0.31161299348 0.5
          -0.29698100686 -0.33138298988 0.28727200627 -0.22633899748 -0.5 0.0026503999252
          -0.3753170073 -0.5 0.14234599471 -0.16431899369 -0.5 0.31346601248
          -0.22633899748 -0.5 0.0026503999252 -0.29698100686 -0.33138298988 0.28727200627
          -0.035155199468 -0.5 0.074470199645 -0.16431899369 -0.5 0.31346601248
          -0.22633899748 -0.5 0.0026503999252 -0.17885400355 -0.17817400396 0.19088800251
          -0.035155199468 -0.5 0.074470199645 -0.29698100686 -0.33138298988 0.28727200627
          -0.18628300726 -0.26750600338 -0.029726099223 -0.22633899748 -0.5 0.0026503999252
          -0.29698100686 -0.33138298988 0.28727200627 -0.17885400355 -0.17817400396 0.19088800251
          -0.42740899324 -0.30482000113 -0.02907329984 -0.18628300726 -0.26750600338 -0.029726099223
          -0.29698100686 -0.33138298988 0.28727200627 -0.17885400355 -0.17817400396 0.19088800251
          -0.42740899324 -0.30482000113 -0.02907329984 -0.18628300726 -0.26750600338 -0.029726099223
          -0.3753170073 -0.5 0.14234599471 -0.29698100686 -0.33138298988 0.28727200627
          -0.18628300726 -0.26750600338 -0.029726099223 -0.22633899748 -0.5 0.0026503999252
          -0.3753170073 -0.5 0.14234599471 -0.29698100686 -0.33138298988 0.28727200627
          3.8664000034 0.19483299553 0.16909499466 3.9662399292 0.2043710053 0.5
          3.9557700157 0.35738798976 0.5 4.1333699226 0.29578199983 0.28484800458
          3.8664000034 0.19483299553 0.16909499466 3.9662399292 0.2043710053 0.5
          4.0886101723 0.063145399094 0.2613709867 3.8265800476 -0.00065459497273 0.32086899877
          3.8664000034 0.19483299553 0.16909499466 3.9662399292 0.2043710053 0.5
          4.1333699226 0.29578199983 0.28484800458 4.0886101723 0.063145399094 0.2613709867
          3.8664000034 0.19483299553 0.16909499466 3.730809927 0.29602000117 0.3136009872
          3.9557700157 0.35738798976 0.5 3.9662399292 0.2043710053 0.5
          3.8664000034 0.19483299553 0.16909499466 3.730809927 0.29602000117 0.3136009872
          3.9662399292 0.2043710053 0.5 3.8128800392 0.20643000305 0.5
          0.12759399414 -0.5 -0.23184600472 -0.14947299659 -0.5 -0.13736000657
          0.10427799821 -0.31776800752 -0.01549869962 -0.035155199468 -0.5 0.074470199645
          1.0831899643 -0.026730500162 0.28337299824 1.142539978 0.300906986 0.29215401411
          1.2676099539 0.18327300251 0.17430500686 1.2891700268 0.025188799948 0.31899100542
          3.023360014 -0.5 -0.32725200057 3.1227400303 -0.30917099118 -0.31313300133
          3.0969901085 -0.5 -0.1024639979 2.9524600506 -0.22408300638 -0.21185599267
          3.1227400303 -0.30917099118 -0.31313300133 3.023360014 -0.5 -0.32725200057
          2.9336800575 -0.44553801417 -0.5 2.9524600506 -0.22408300638 -0.21185599267
          -4.0945601463 -0.28051298857 0.31798601151 -4.237349987 -0.30583998561 0.5
          -4.1482901573 -0.5 0.45363500714 -4.2715802193 -0.32873600721 0.20494799316
          -4.2715802193 -0.32873600721 0.20494799316 -4.2407898903 -0.014909300022 0.29183000326
          -4.3976202011 -0.16255900264 0.25912800431 -4.1423802376 -0.18350799382 0.11192400008
          -2.0332100391 0.28143399954 0.34608799219 -2.2191998959 0.31082698703 0.26025301218
          -1.9560199976 0.18910500407 0.17773799598 -2.131000042 0.5 0.14166200161
          2.2094399929 -0.21062499285 -0.5 2.042320013 -0.28687000275 -0.5
          2.2389800549 -0.33469301462 -0.31423199177 2.3412098885 -0.33859500289 -0.5
          -2.0084600449 0.5 0.30924999714 -2.2191998959 0.31082698703 0.26025301218
          -2.0332100391 0.28143399954 0.34608799219 -2.131000042 0.5 0.14166200161
          3.6745901108 -0.5 -0.024972600862 3.6328399181 -0.30484598875 0.056098300964
          3.8334798813 -0.29951399565 -0.035472199321 3.8067100048 -0.5 0.09490519762
          3.8334798813 -0.29951399565 -0.035472199321 3.6328399181 -0.30484598875 0.056098300964
          3.8753499985 -0.34310999513 0.22761000693 3.8067100048 -0.5 0.09490519762
          3.8334798813 -0.29951399565 -0.035472199321 3.6328399181 -0.30484598875 0.056098300964
          3.7557299137 -0.14269599319 0.12685400248 3.8753499985 -0.34310999513 0.22761000693
          3.6328399181 -0.30484598875 0.056098300964 3.678839922 -0.28315201402 0.29635599256
          3.7557299137 -0.14269599319 0.12685400248 3.8753499985 -0.34310999513 0.22761000693
          3.6328399181 -0.30484598875 0.056098300964 3.678839922 -0.28315201402 0.29635599256
          3.8753499985 -0.34310999513 0.22761000693 3.6361598969 -0.5 0.14722600579
          3.8067100048 -0.5 0.09490519762 3.6328399181 -0.30484598875 0.056098300964
          3.8753499985 -0.34310999513 0.22761000693 3.6361598969 -0.5 0.14722600579
          3.6361598969 -0.5 0.14722600579 3.4722599983 -0.22174499929 0.20733100176
          3.6328399181 -0.30484598875 0.056098300964 3.678839922 -0.28315201402 0.29635599256
          4.6908898354 0.5 -0.18460099399 4.7124700546 0.20787400007 -0.21475000679
          4.8203802109 0.5 -0.047230999917 5 0.32882899046 -0.12744599581
          3.6328399181 -0.30484598875 0.056098300964 3.4722599983 -0.22174499929 0.20733100176
          3.7557299137 -0.14269599319 0.12685400248 3.678839922 -0.28315201402 0.29635599256
          3.4722599983 -0.22174499929 0.20733100176 3.4346001148 0.010584499687 0.0013051299611
          3.6328399181 -0.30484598875 0.056098300964 3.7557299137 -0.14269599319 0.12685400248
          3.6328399181 -0.30484598875 0.056098300964 3.4346001148 0.010584499687 0.0013051299611
          3.6606800556 0.057222399861 0.047008000314 3.7557299137 -0.14269599319 0.12685400248
          3.6328399181 -0.30484598875 0.056098300964 3.6606800556 0.057222399861 0.047008000314
          3.6450901031 -0.17131699622 -0.19211299717 3.7557299137 -0.14269599319 0.12685400248
          -1.7309900522 0.022700900212 -0.2696749866 -1.8430000544 -0.33087998629 -0.29164901376
          -1.9522600174 -0.011583000422 -0.29229301214 -1.670410037 -0.23073199391 -0.21768200397
          3.1241300106 0.5 -0.23149099946 3.0176899433 0.33451101184 -0.5
          3.0563700199 0.30440598726 -0.29042899609 3.1881299019 0.5 -0.42051500082
          3.0563700199 0.30440598726 -0.29042899609 3.0176899433 0.33451101184 -0.5
          3.2461500168 0.28882101178 -0.5 3.1881299019 0.5 -0.42051500082
          -1.7309900522 0.022700900212 -0.2696749866 -1.890920043 -0.16450600326 -0.5
          -1.9522600174 -0.011583000422 -0.29229301214 -1.8430000544 -0.33087998629 -0.29164901376
          3.0563700199 0.30440598726 -0.29042899609 3.0176899433 0.33451101184 -0.5
          3.0909199715 0.094946503639 -0.5 3.2461500168 0.28882101178 -0.5
          3.0563700199 0.30440598726 -0.29042899609 2.8999099731 0.041673701257 -0.29681798816
          3.0909199715 0.094946503639 -0.5 3.0176899433 0.33451101184 -0.5
          3.0563700199 0.30440598726 -0.29042899609 3.0909199715 0.094946503639 -0.5
          2.8999099731 0.041673701257 -0.29681798816 3.120470047 -0.021967599168 -0.27757799625
          1.1859600544 0.5 0.33510899544 1.1788899899 0.48774001002 0.5
          1.1301300526 0.30475699902 0.5 1.0224000216 0.5 0.41114699841
          2.4503700733 -0.5 0.32925000787 2.3215301037 -0.5 0.19653899968
          2.498290062 -0.5 0.11315499991 2.4458899498 -0.25059598684 0.23923400044
          1.0224000216 0.5 0.41114699841 0.8470069766 0.5 0.36908501387
          0.94293701649 0.27613300085 0.5 0.96667098999 0.22423000634 0.21116599441
          1.0224000216 0.5 0.41114699841 0.94293701649 0.27613300085 0.5
          0.8470069766 0.5 0.36908501387 0.76468199492 0.37051400542 0.5
          3.4506099224 -0.25270500779 -0.04623780027 3.4722599983 -0.22174499929 0.20733100176
          3.3018300533 -0.5 0.031524900347 3.18708992 -0.32281601429 -0.009787529707
          3.4506099224 -0.25270500779 -0.04623780027 3.4722599983 -0.22174499929 0.20733100176
          3.18708992 -0.32281601429 -0.009787529707 3.1743900776 -0.18350000679 0.1536089927
          -2.8708798885 0.5 0.40537801385 -2.9205000401 0.31499001384 0.5
          -2.739109993 0.35740399361 0.5 -3.012720108 0.29143700004 0.30083501339
          -2.8708798885 0.5 0.40537801385 -2.739109993 0.35740399361 0.5
          -2.7599999905 0.5 0.28317898512 -3.012720108 0.29143700004 0.30083501339
          -2.8708798885 0.5 0.40537801385 -2.739109993 0.35740399361 0.5
          -2.6573500633 0.5 0.4123570025 -2.7599999905 0.5 0.28317898512
          0.70003300905 0.45500999689 -0.5 0.70714598894 0.5 -0.22382299602
          0.73280501366 0.2939440012 -0.30173701048 0.49744200706 0.32136800885 -0.31016400456
          0.70003300905 0.45500999689 -0.5 0.49744200706 0.32136800885 -0.31016400456
          0.73280501366 0.2939440012 -0.30173701048 0.57893800735 0.29019400477 -0.5
          -2.6128799915 0.13250499964 0.27421799302 -2.8607199192 0.16806200147 0.1988620013
          -2.739109993 0.35740399361 0.5 -2.6651101112 0.18645100296 0.5
          0.49744200706 0.32136800885 -0.31016400456 0.58461797237 0.18660899997 -0.17640599608
          0.73280501366 0.2939440012 -0.30173701048 0.67495399714 0.10961399972 -0.5
          0.70714598894 0.5 -0.22382299602 0.58461797237 0.18660899997 -0.17640599608
          0.73280501366 0.2939440012 -0.30173701048 0.49744200706 0.32136800885 -0.31016400456
          -3.012720108 0.29143700004 0.30083501339 -2.739109993 0.35740399361 0.5
          -2.7599999905 0.5 0.28317898512 -2.8607199192 0.16806200147 0.1988620013
          -3.012720108 0.29143700004 0.30083501339 -2.9205000401 0.31499001384 0.5
          -2.739109993 0.35740399361 0.5 -2.8607199192 0.16806200147 0.1988620013
          -2.8607199192 0.16806200147 0.1988620013 -2.9205000401 0.31499001384 0.5
          -2.739109993 0.35740399361 0.5 -2.6651101112 0.18645100296 0.5
          1.0260499716 0.011771400459 0.016185000539 1.2388900518 -0.17473700643 -0.16655999422
          0.96319800615 -0.25574100018 -0.086030602455 1.0750000477 -0.14948399365 0.12495800108
          2.7792201042 -0.32771399617 -0.28562399745 2.8704299927 -0.5 -0.1951110065
          2.9336800575 -0.44553801417 -0.5 2.6179599762 -0.5 -0.39742100239
          3.023360014 -0.5 -0.32725200057 2.8704299927 -0.5 -0.1951110065
          2.9336800575 -0.44553801417 -0.5 2.7792201042 -0.32771399617 -0.28562399745
          3.023360014 -0.5 -0.32725200057 2.7792201042 -0.32771399617 -0.28562399745
          2.9336800575 -0.44553801417 -0.5 2.9524600506 -0.22408300638 -0.21185599267
          3.023360014 -0.5 -0.32725200057 2.8704299927 -0.5 -0.1951110065
          2.7792201042 -0.32771399617 -0.28562399745 2.9524600506 -0.22408300638 -0.21185599267
          0.89871001244 -0.21273000538 0.19672900438 0.87731397152 0.049460299313 0.15210199356
          1.0750000477 -0.14948399365 0.12495800108 1.0831899643 -0.026730500162 0.28337299824
          2.9589400291 -0.2156240046 -0.5 2.9524600506 -0.22408300638 -0.21185599267
          2.9336800575 -0.44553801417 -0.5 2.7792201042 -0.32771399617 -0.28562399745
          2.9589400291 -0.2156240046 -0.5 2.7792201042 -0.32771399617 -0.28562399745
          2.9336800575 -0.44553801417 -0.5 2.7811000347 -0.31243601441 -0.5
          2.7792201042 -0.32771399617 -0.28562399745 2.6700599194 -0.18108099699 -0.17258299887
          2.7578799725 -0.10127799958 -0.5 2.6635499001 -0.0075318100862 -0.31723999977
          1.6828099489 -0.15067499876 0.17043499649 1.7191100121 -0.2926889956 0.013918399811
          1.8789199591 -0.10240700096 0.16247299314 1.8764899969 -0.15924200416 -0.081890702248
          -3.1326100826 -0.026751099154 0.30142500997 -3.0562400818 -0.17835299671 0.5
          -2.8798100948 0.024562800303 0.5 -2.9183399677 -0.016215600073 0.29276099801
          -3.1326100826 -0.026751099154 0.30142500997 -3.0562400818 -0.17835299671 0.5
          -2.9183399677 -0.016215600073 0.29276099801 -2.9220399857 -0.26491099596 0.30408999324
          -3.0034298897 -0.12146800011 0.11256500334 -2.9220399857 -0.26491099596 0.30408999324
          -3.1326100826 -0.026751099154 0.30142500997 -2.9183399677 -0.016215600073 0.29276099801
          -2.9183399677 -0.016215600073 0.29276099801 -3.0562400818 -0.17835299671 0.5
          -2.8798100948 0.024562800303 0.5 -2.9220399857 -0.26491099596 0.30408999324
          -2.9183399677 -0.016215600073 0.29276099801 -2.9220399857 -0.26491099596 0.30408999324
          -2.8798100948 0.024562800303 0.5 -2.7625899315 -0.27350199223 0.5
          -2.6128799915 0.13250499964 0.27421799302 -2.8798100948 0.024562800303 0.5
          -2.9183399677 -0.016215600073 0.29276099801 -2.8607199192 0.16806200147 0.1988620013
          -2.6128799915 0.13250499964 0.27421799302 -2.9183399677 -0.016215600073 0.29276099801
          -2.7145900726 -0.082542397082 0.279302001 -2.8607199192 0.16806200147 0.1988620013
          -2.6128799915 0.13250499964 0.27421799302 -2.8798100948 0.024562800303 0.5
          -2.7145900726 -0.082542397082 0.279302001 -2.9183399677 -0.016215600073 0.29276099801
          -0.12616600096 0.363714993 -0.5 -0.25742098689 0.29623898864 -0.3442530036
          -0.39605501294 0.24562799931 -0.5 -0.41667899489 0.5 -0.48140498996
          -0.12616600096 0.363714993 -0.5 -0.12994900346 0.14103500545 -0.5
          -0.39605501294 0.24562799931 -0.5 -0.25742098689 0.29623898864 -0.3442530036
          -0.020521700382 0.27518200874 -0.3097819984 -0.12994900346 0.14103500545 -0.5
          -0.12616600096 0.363714993 -0.5 -0.25742098689 0.29623898864 -0.3442530036
          -0.41667899489 0.5 -0.48140498996 -0.25742098689 0.29623898864 -0.3442530036
          -0.39605501294 0.24562799931 -0.5 -0.47644600272 0.21734400094 -0.22011299431
          -0.41667899489 0.5 -0.48140498996 -0.25742098689 0.29623898864 -0.3442530036
          -0.47644600272 0.21734400094 -0.22011299431 -0.43139898777 0.5 -0.15948499739
          -0.41667899489 0.5 -0.48140498996 -0.26246398687 0.5 -0.27721399069
          -0.25742098689 0.29623898864 -0.3442530036 -0.43139898777 0.5 -0.15948499739
          -1.8209400177 0.5 0.2201499939 -2.131000042 0.5 0.14166200161
          -1.9903299809 0.30669298768 -0.0096472296864 -2.0516901016 0.5 -0.021020600572
          -1.8209400177 0.5 0.2201499939 -2.131000042 0.5 0.14166200161
          -1.8121700287 0.32682698965 0.085832998157 -1.9903299809 0.30669298768 -0.0096472296864
          -1.8121700287 0.32682698965 0.085832998157 -1.9903299809 0.30669298768 -0.0096472296864
          -1.9655499458 0.017111200839 0.015656199306 -1.7420699596 0.2584669888 -0.11043199897
          -1.9903299809 0.30669298768 -0.0096472296864 -2.131000042 0.5 0.14166200161
          -2.182790041 0.25494199991 0.029647100717 -2.0516901016 0.5 -0.021020600572
          -2.0516901016 0.5 -0.021020600572 -2.141769886 0.5 -0.17799699306
          -2.182790041 0.25494199991 0.029647100717 -1.9903299809 0.30669298768 -0.0096472296864
          2.3991000652 0.5 0.11198899895 2.6394400597 0.5 -0.0548616983
          2.4481799603 0.24948500097 0.0013240700355 2.6540100574 0.30316799879 0.029222900048
          2.4748399258 0.5 -0.20795799792 2.4481799603 0.24948500097 0.0013240700355
          2.6394400597 0.5 -0.0548616983 2.6540100574 0.30316799879 0.029222900048
          2.4748399258 0.5 -0.20795799792 2.6540100574 0.30316799879 0.029222900048
          2.6394400597 0.5 -0.0548616983 2.4688100815 0.27537798882 -0.28756999969
          2.4748399258 0.5 -0.20795799792 2.4481799603 0.24948500097 0.0013240700355
          2.6540100574 0.30316799879 0.029222900048 2.4688100815 0.27537798882 -0.28756999969
          2.4688100815 0.27537798882 -0.28756999969 2.4481799603 0.24948500097 0.0013240700355
          2.6540100574 0.30316799879 0.029222900048 2.6477799416 0.16645799577 -0.17383100092
          2.4688100815 0.27537798882 -0.28756999969 2.6540100574 0.30316799879 0.029222900048
          2.6394400597 0.5 -0.0548616983 2.6477799416 0.16645799577 -0.17383100092
          2.4481799603 0.24948500097 0.0013240700355 2.6477799416 0.16645799577 -0.17383100092
          2.6777200699 -0.0055014099926 -0.0048864497803 2.6540100574 0.30316799879 0.029222900048
          2.4481799603 0.24948500097 0.0013240700355 2.6540100574 0.30316799879 0.029222900048
          2.6777200699 -0.0055014099926 -0.0048864497803 2.6889400482 0.16072399914 0.18579299748
          -3.1145401001 -0.33741301298 0.5 -3.2471899986 -0.22948899865 0.5
          -3.2725000381 -0.39861398935 0.5 -3.1171200275 -0.32041800022 0.23436300457
          -3.1145401001 -0.33741301298 0.5 -3.1171200275 -0.32041800022 0.23436300457
          -3.2725000381 -0.39861398935 0.5 -3.2333400249 -0.5 0.24993300438
          -3.1145401001 -0.33741301298 0.5 -3.2333400249 -0.5 0.24993300438
          -2.9936599731 -0.45610100031 0.5 -3.1171200275 -0.32041800022 0.23436300457
          -2.9220399857 -0.26491099596 0.30408999324 -3.1145401001 -0.33741301298 0.5
          -2.9936599731 -0.45610100031 0.5 -3.1171200275 -0.32041800022 0.23436300457
          -2.9220399857 -0.26491099596 0.30408999324 -3.1171200275 -0.32041800022 0.23436300457
          -2.9936599731 -0.45610100031 0.5 -2.962280035 -0.5 0.2204490006
          -3.1171200275 -0.32041800022 0.23436300457 -3.2333400249 -0.5 0.24993300438
          -2.9936599731 -0.45610100031 0.5 -2.962280035 -0.5 0.2204490006
          -3.1171200275 -0.32041800022 0.23436300457 -3.2899799347 -0.19551900029 0.21153800189
          -3.2725000381 -0.39861398935 0.5 -3.2333400249 -0.5 0.24993300438
          -3.1171200275 -0.32041800022 0.23436300457 -3.2471899986 -0.22948899865 0.5
          -3.2725000381 -0.39861398935 0.5 -3.2899799347 -0.19551900029 0.21153800189
          1.7191100121 -0.2926889956 0.013918399811 1.4679900408 -0.23194299638 -0.032342601568
          1.6971999407 -0.18535399437 -0.17042499781 1.7197300196 -0.0059337001294 -0.015229499899
          4.4999699593 -0.30107301474 -0.267922014 4.6962199211 -0.21809899807 -0.17522199452
          4.7140798569 -0.5 -0.1463650018 4.5304999352 -0.5 -0.15178099275
          4.2942700386 0.099316298962 -0.5 4.2944598198 0.20695400238 -0.17472800612
          4.4943199158 0.06769169867 -0.29010298848 4.3479599953 -0.069560296834 -0.31158301234
          1.6828099489 -0.15067499876 0.17043499649 1.4679900408 -0.23194299638 -0.032342601568
          1.7191100121 -0.2926889956 0.013918399811 1.7197300196 -0.0059337001294 -0.015229499899
          2.0565500259 -0.31903299689 0.2972239852 1.8388400078 -0.37851500511 0.5
          1.8512899876 -0.25720700622 0.29749301076 1.9660799503 -0.216049999 0.5
          1.8512899876 -0.25720700622 0.29749301076 2.0565500259 -0.31903299689 0.2972239852
          1.9660799503 -0.216049999 0.5 1.9551000595 0.040498699993 0.28340399265
          4.2942700386 0.099316298962 -0.5 4.5256800652 -0.098457798362 -0.5
          4.3479599953 -0.069560296834 -0.31158301234 4.4943199158 0.06769169867 -0.29010298848
          2.0565500259 -0.31903299689 0.2972239852 2.1778399944 -0.17710599303 0.19188399613
          2.0954899788 -0.062455501407 0.5 1.9551000595 0.040498699993 0.28340399265
          1.9660799503 -0.216049999 0.5 2.0565500259 -0.31903299689 0.2972239852
          2.0954899788 -0.062455501407 0.5 1.9551000595 0.040498699993 0.28340399265
          2.0565500259 -0.31903299689 0.2972239852 2.0752000809 -0.5 0.1838440001
          2.2314100266 -0.30056801438 0.0065283500589 1.9245300293 -0.27816799283 0.073713801801
          -4.500120163 0.30916801095 -0.29975399375 -4.697619915 0.5 -0.22214700282
          -4.4078397751 0.5 -0.27026000619 -4.514550209 0.5 -0.045017201453
          -4.4078397751 0.5 -0.27026000619 -4.514550209 0.5 -0.045017201453
          -4.3864398003 0.25989100337 -0.089046299458 -4.500120163 0.30916801095 -0.29975399375
          -4.6541099548 0.5 -0.42925700545 -4.4496002197 0.5 -0.48874101043
          -4.500120163 0.30916801095 -0.29975399375 -4.4078397751 0.5 -0.27026000619
          -4.4496002197 0.5 -0.48874101043 -4.500120163 0.30916801095 -0.29975399375
          -4.4078397751 0.5 -0.27026000619 -4.2864198685 0.30046600103 -0.30744600296
          -1.7145800591 -0.5 0.30908799171 -1.7268799543 -0.26261898875 0.29539200664
          -1.8273899555 -0.5 0.4705440104 -1.9660600424 -0.5 0.38725298643
          -2.6850099564 0.20022499561 -0.22423900664 -2.8458900452 0.23675900698 -0.5
          -2.8274400234 0.051215600222 -0.3225030005 -2.6483700275 0.13034400344 -0.5
          2.0984899998 0.5 -0.030215999112 2.2502601147 0.5 -0.1980600059
          2.2007598877 0.32477998734 -0.29550099373 2.2155299187 0.29384601116 -0.016047000885
          1.0404800177 -0.5 0.084503702819 1.1000699997 -0.5 0.25644800067
          0.92648899555 -0.5 0.31108599901 1.1263699532 -0.31314399838 0.27022001147
          -3.012720108 0.29143700004 0.30083501339 -3.0836999416 0.5 0.28708401322
          -3.2776799202 0.5 0.32763698697 -3.177740097 0.19153399765 0.19352599978
          -2.4500799179 -0.18146699667 0.1914049983 -2.3618400097 -0.32881900668 0.3184300065
          -2.5157299042 -0.098369702697 0.5 -2.4325098991 0.0032291798852 0.31787699461
          -2.3618400097 -0.32881900668 0.3184300065 -2.4325098991 0.0032291798852 0.31787699461
          -2.4500799179 -0.18146699667 0.1914049983 -2.1809399128 -0.24249899387 0.24300700426
          1.2371799946 0.38177201152 -0.5 1.1232800484 0.5 -0.40171200037
          1.2041200399 0.21308499575 -0.18568199873 1.0355600119 0.3612369895 -0.5
          -2.4500799179 -0.18146699667 0.1914049983 -2.4605801105 -0.31329700351 0.0017525800504
          -2.4806699753 -0.5 0.25502499938 -2.3618400097 -0.32881900668 0.3184300065
          -2.3285899162 -0.077071398497 0.5 -2.4325098991 0.0032291798852 0.31787699461
          -2.3618400097 -0.32881900668 0.3184300065 -2.1809399128 -0.24249899387 0.24300700426
          -2.3618400097 -0.32881900668 0.3184300065 -2.3285899162 -0.077071398497 0.5
          -2.5157299042 -0.098369702697 0.5 -2.4325098991 0.0032291798852 0.31787699461
          -2.3285899162 -0.077071398497 0.5 -2.4707000256 -0.30024200678 0.5
          -2.3618400097 -0.32881900668 0.3184300065 -2.5157299042 -0.098369702697 0.5
          -2.3618400097 -0.32881900668 0.3184300065 -2.5125598907 -0.5 0.46646800637
          -2.3103899956 -0.47168698907 0.5 -2.4806699753 -0.5 0.25502499938
          0.084536299109 -0.24571800232 -0.5 0.1349440068 -0.5 -0.49112400413
          0.27028900385 -0.5 -0.35754400492 0.29461199045 -0.27944099903 -0.5
          0.71499300003 0.033225100487 -0.28708100319 0.73280501366 0.2939440012 -0.30173701048
          0.82974797487 0.27198299766 -0.5 0.93949502707 0.1572739929 -0.5
          1.0077899694 0.013961300254 -0.5 0.89200401306 -0.15874500573 -0.5
          0.82831698656 0.016366999596 -0.5 0.93065899611 -0.030296299607 -0.23989999294
          0.82831698656 0.016366999596 -0.5 0.93065899611 -0.030296299607 -0.23989999294
          0.93949502707 0.1572739929 -0.5 1.0077899694 0.013961300254 -0.5
          2.1815600395 -0.001020470052 -0.32536798716 2.040199995 0.016450500116 -0.5
          2.042320013 -0.28687000275 -0.5 2.2094399929 -0.21062499285 -0.5
          2.2094399929 -0.21062499285 -0.5 1.9453500509 -0.087545797229 -0.2573390007
          2.042320013 -0.28687000275 -0.5 2.1815600395 -0.001020470052 -0.32536798716
          2.1815600395 -0.001020470052 -0.32536798716 2.040199995 0.016450500116 -0.5
          2.2094399929 -0.21062499285 -0.5 2.3120000362 -0.058240499347 -0.5
          0.82974797487 0.27198299766 -0.5 1.035220027 0.14891000092 -0.29856100678
          1.0355600119 0.3612369895 -0.5 0.93949502707 0.1572739929 -0.5
          0.93949502707 0.1572739929 -0.5 0.73280501366 0.2939440012 -0.30173701048
          0.82974797487 0.27198299766 -0.5 1.035220027 0.14891000092 -0.29856100678
          0.71499300003 0.033225100487 -0.28708100319 0.73280501366 0.2939440012 -0.30173701048
          0.93949502707 0.1572739929 -0.5 1.035220027 0.14891000092 -0.29856100678
          0.71499300003 0.033225100487 -0.28708100319 1.035220027 0.14891000092 -0.29856100678
          0.93949502707 0.1572739929 -0.5 0.93065899611 -0.030296299607 -0.23989999294
          0.71499300003 0.033225100487 -0.28708100319 0.89332699776 0.23076300323 -0.16234900057
          1.035220027 0.14891000092 -0.29856100678 0.93065899611 -0.030296299607 -0.23989999294
          0.71499300003 0.033225100487 -0.28708100319 0.73280501366 0.2939440012 -0.30173701048
          1.035220027 0.14891000092 -0.29856100678 0.89332699776 0.23076300323 -0.16234900057
          1.035220027 0.14891000092 -0.29856100678 0.73280501366 0.2939440012 -0.30173701048
          0.82974797487 0.27198299766 -0.5 0.89332699776 0.23076300323 -0.16234900057
          0.89332699776 0.23076300323 -0.16234900057 1.0260499716 0.011771400459 0.016185000539
          1.035220027 0.14891000092 -0.29856100678 0.93065899611 -0.030296299607 -0.23989999294
          1.139539957 -0.036767199636 -0.30390501022 1.035220027 0.14891000092 -0.29856100678
          1.0260499716 0.011771400459 0.016185000539 0.93065899611 -0.030296299607 -0.23989999294
          0.93065899611 -0.030296299607 -0.23989999294 1.139539957 -0.036767199636 -0.30390501022
          1.035220027 0.14891000092 -0.29856100678 1.0077899694 0.013961300254 -0.5
          0.93065899611 -0.030296299607 -0.23989999294 1.035220027 0.14891000092 -0.29856100678
          0.93949502707 0.1572739929 -0.5 1.0077899694 0.013961300254 -0.5
          0.93949502707 0.1572739929 -0.5 1.035220027 0.14891000092 -0.29856100678
          1.0963699818 0.18162600696 -0.5 1.0077899694 0.013961300254 -0.5
          0.93949502707 0.1572739929 -0.5 1.035220027 0.14891000092 -0.29856100678
          1.0355600119 0.3612369895 -0.5 1.0963699818 0.18162600696 -0.5
          1.2371799946 0.38177201152 -0.5 1.035220027 0.14891000092 -0.29856100678
          1.0963699818 0.18162600696 -0.5 1.0355600119 0.3612369895 -0.5
          1.2371799946 0.38177201152 -0.5 1.2041200399 0.21308499575 -0.18568199873
          1.035220027 0.14891000092 -0.29856100678 1.0355600119 0.3612369895 -0.5
          1.2371799946 0.38177201152 -0.5 1.2041200399 0.21308499575 -0.18568199873
          1.0963699818 0.18162600696 -0.5 1.035220027 0.14891000092 -0.29856100678
          1.2041200399 0.21308499575 -0.18568199873 1.3415499926 0.046351000667 -0.2966940105
          1.0963699818 0.18162600696 -0.5 1.035220027 0.14891000092 -0.29856100678
          1.035220027 0.14891000092 -0.29856100678 1.3415499926 0.046351000667 -0.2966940105
          1.0963699818 0.18162600696 -0.5 1.2096600533 0.029559800401 -0.5
          1.035220027 0.14891000092 -0.29856100678 1.2096600533 0.029559800401 -0.5
          1.0963699818 0.18162600696 -0.5 1.0077899694 0.013961300254 -0.5
          1.139539957 -0.036767199636 -0.30390501022 1.2096600533 0.029559800401 -0.5
          1.035220027 0.14891000092 -0.29856100678 1.0077899694 0.013961300254 -0.5
          1.139539957 -0.036767199636 -0.30390501022 1.3415499926 0.046351000667 -0.2966940105
          1.035220027 0.14891000092 -0.29856100678 1.2096600533 0.029559800401 -0.5
          -2.3996500969 0.17564900219 0.17784799635 -2.4461400509 0.30663898587 0.5
          -2.4325098991 0.0032291798852 0.31787699461 -2.568860054 0.328433007 0.33221000433
          -2.5066099167 0.5 0.23033800721 -2.332449913 0.5 0.39009299874
          -2.2191998959 0.31082698703 0.26025301218 -2.568860054 0.328433007 0.33221000433
          -2.6367399693 0.26534798741 0.078260503709 -2.8607199192 0.16806200147 0.1988620013
          -2.568860054 0.328433007 0.33221000433 -2.6128799915 0.13250499964 0.27421799302
          -2.5066099167 0.5 0.23033800721 -2.6367399693 0.26534798741 0.078260503709
          -2.7599999905 0.5 0.28317898512 -2.568860054 0.328433007 0.33221000433
          -2.5066099167 0.5 0.23033800721 -2.7599999905 0.5 0.28317898512
          -2.6573500633 0.5 0.4123570025 -2.568860054 0.328433007 0.33221000433
          -2.5066099167 0.5 0.23033800721 -2.568860054 0.328433007 0.33221000433
          -2.3996500969 0.17564900219 0.17784799635 -2.6367399693 0.26534798741 0.078260503709
          3.0563700199 0.30440598726 -0.29042899609 3.1881299019 0.5 -0.42051500082
          3.2461500168 0.28882101178 -0.5 3.2970399857 0.30501198769 -0.2939350009
          3.1241300106 0.5 -0.23149099946 3.1881299019 0.5 -0.42051500082
          3.0563700199 0.30440598726 -0.29042899609 3.2970399857 0.30501198769 -0.2939350009
          3.1808700562 0.17408800125 -0.17278499901 3.1241300106 0.5 -0.23149099946
          3.0563700199 0.30440598726 -0.29042899609 3.2970399857 0.30501198769 -0.2939350009
          -2.568860054 0.328433007 0.33221000433 -2.6128799915 0.13250499964 0.27421799302
          -2.3996500969 0.17564900219 0.17784799635 -2.6367399693 0.26534798741 0.078260503709
          3.2171900272 0.5 -0.054951798171 3.1241300106 0.5 -0.23149099946
          3.1808700562 0.17408800125 -0.17278499901 3.2970399857 0.30501198769 -0.2939350009
          3.2171900272 0.5 -0.054951798171 3.1241300106 0.5 -0.23149099946
          3.2970399857 0.30501198769 -0.2939350009 3.2946200371 0.5 -0.20856200159
          3.1241300106 0.5 -0.23149099946 3.1881299019 0.5 -0.42051500082
          3.2970399857 0.30501198769 -0.2939350009 3.2946200371 0.5 -0.20856200159
          3.2970399857 0.30501198769 -0.2939350009 3.3973500729 0.5 -0.34653198719
          3.4734098911 0.21108800173 -0.2205349952 3.5255100727 0.5 -0.16535499692
          -1.8430000544 -0.33087998629 -0.29164901376 -2.0754799843 -0.5 -0.065173096955
          -1.8892199993 -0.5 -0.034159000963 -1.7730799913 -0.5 -0.18303699791
          -1.8430000544 -0.33087998629 -0.29164901376 -1.8892199993 -0.5 -0.034159000963
          -1.728489995 -0.2819840014 0.029070099816 -1.7730799913 -0.5 -0.18303699791
          -1.9544999599 -0.19884000719 -0.16746899486 -1.8892199993 -0.5 -0.034159000963
          -1.728489995 -0.2819840014 0.029070099816 -1.8430000544 -0.33087998629 -0.29164901376
          -1.9544999599 -0.19884000719 -0.16746899486 -2.0815498829 -0.33450999856 -0.28891399503
          -1.8892199993 -0.5 -0.034159000963 -1.8430000544 -0.33087998629 -0.29164901376
          -1.890920043 -0.16450600326 -0.5 -2.0815498829 -0.33450999856 -0.28891399503
          -1.9544999599 -0.19884000719 -0.16746899486 -1.8430000544 -0.33087998629 -0.29164901376
          -2.0815498829 -0.33450999856 -0.28891399503 -2.0754799843 -0.5 -0.065173096955
          -1.8892199993 -0.5 -0.034159000963 -1.8430000544 -0.33087998629 -0.29164901376
          -2.0815498829 -0.33450999856 -0.28891399503 -1.9762599468 -0.5 -0.39294800162
          -2.0754799843 -0.5 -0.065173096955 -1.8430000544 -0.33087998629 -0.29164901376
          0.59722298384 -0.5 0.24278099835 0.37961798906 -0.27483201027 0.3045360148
          0.58512401581 -0.18639500439 0.18318599463 0.7291790247 -0.29900100827 0.29153800011
          0.7291790247 -0.29900100827 0.29153800011 0.59722298384 -0.5 0.24278099835
          0.68863600492 -0.5 0.092009201646 0.58512401581 -0.18639500439 0.18318599463
          0.7291790247 -0.29900100827 0.29153800011 0.78195297718 -0.29943698645 0.031285099685
          0.58512401581 -0.18639500439 0.18318599463 0.68863600492 -0.5 0.092009201646
          -3.0582199097 0.31288200617 -0.29153999686 -2.9752700329 0.12661999464 -0.5
          -3.0681700706 -0.022411899641 -0.31216698885 -2.9755399227 0.12714900076 -0.1661580056
          -3.5796399117 -0.036828301847 0.30965799093 -3.4786798954 -0.29719600081 0.28423199058
          -3.5133900642 -0.13522699475 0.5 -3.349050045 -0.092123396695 0.5
          -0.92035800219 0.31782001257 0.33497199416 -1.1475800276 0.23044300079 0.22876000404
          -1.174579978 0.41473001242 0.5 -0.96254199743 0.19088900089 0.5
          -0.92035800219 0.31782001257 0.33497199416 -1.0172100067 0.25485399365 -0.020222399384
          -1.1475800276 0.23044300079 0.22876000404 -0.86464500427 0.18405400217 0.1796399951
          -0.79987299442 0.5 0.33046600223 -0.92897802591 0.46998101473 0.5
          -0.7510010004 0.25560700893 0.5 -0.92035800219 0.31782001257 0.33497199416
          -0.79987299442 0.5 0.33046600223 -0.92035800219 0.31782001257 0.33497199416
          -0.7510010004 0.25560700893 0.5 -0.71377199888 0.30195298791 0.28811401129
          -0.92035800219 0.31782001257 0.33497199416 -0.79987299442 0.5 0.33046600223
          -0.77020597458 0.5 0.12030699849 -0.71377199888 0.30195298791 0.28811401129
          -4.2389798164 0.42935600877 -0.5 -4.0616898537 0.31015700102 -0.5
          -4.2864198685 0.30046600103 -0.30744600296 -4.0830402374 0.30948498845 -0.29728299379
          -1.0002299547 0.5 0.26042699814 -0.92897802591 0.46998101473 0.5
          -0.79987299442 0.5 0.33046600223 -0.92035800219 0.31782001257 0.33497199416
          -4.765540123 0.29459398985 -0.015708299354 -4.7836899757 -0.0049985698424 -0.0062314402312
          -5 0.15884299576 0.21330599487 -4.6812400818 0.14698000252 0.1767770052
          -4.765540123 0.29459398985 -0.015708299354 -4.7836899757 -0.0049985698424 -0.0062314402312
          -5 0.28975299001 0.088944099844 -5 0.15884299576 0.21330599487
          -0.93892097473 -0.041356798261 0.5 -1.2071299553 -0.056219801307 0.5
          -1.1465300322 -0.23797599971 0.5 -1.1246000528 -0.21291700006 0.24169400334
          2.0216500759 0.22515000403 -0.27024498582 1.8703600168 0.23445099592 -0.5
          1.9433000088 0.5 -0.4768820107 1.8882399797 0.5 -0.32798698545
          1.8882399797 0.5 -0.32798698545 1.8703600168 0.23445099592 -0.5
          1.9433000088 0.5 -0.4768820107 1.7353800535 0.5 -0.37083101273
          4.3918099403 0.5 0.31080400944 4.1836500168 0.5 0.32843101025
          4.2713398933 0.33074501157 0.5 4.1333699226 0.29578199983 0.28484800458
          3.7404100895 0.5 0.40195301175 3.5066199303 0.45685198903 0.5
          3.730809927 0.29602000117 0.3136009872 3.5264201164 0.5 0.31256499887
          3.7404100895 0.5 0.40195301175 3.730809927 0.29602000117 0.3136009872
          3.730230093 0.5 0.19785399735 3.5264201164 0.5 0.31256499887
          -3.0681700706 -0.022411899641 -0.31216698885 -3.0067799091 -0.070524998009 -0.1112980023
          -3.0114998817 -0.30267500877 -0.29305499792 -3.1692500114 -0.17956000566 -0.18042400479
          -1.1475800276 0.23044300079 0.22876000404 -1.241230011 0.18273699284 0.5
          -1.29381001 0.12503300607 0.31571400166 -1.3727099895 0.30601900816 0.28291600943
          3.5264201164 0.5 0.31256499887 3.353579998 0.25871399045 0.31244799495
          3.5617899895 0.20520099998 0.20095099509 3.541369915 0.5 0.1197900027
          3.5264201164 0.5 0.31256499887 3.353579998 0.25871399045 0.31244799495
          3.495059967 0.19994699955 0.5 3.5617899895 0.20520099998 0.20095099509
          0.87731397152 0.049460299313 0.15210199356 0.96667098999 0.22423000634 0.21116599441
          1.0260499716 0.011771400459 0.016185000539 1.0831899643 -0.026730500162 0.28337299824
          -0.17885400355 -0.17817400396 0.19088800251 -0.042902801186 0.13622699678 0.15243600309
          -0.16119599342 0.084271103144 0.32078498602 -0.169242993 0.019168399274 -0.0072063799016
          -0.17885400355 -0.17817400396 0.19088800251 -0.16119599342 0.084271103144 0.32078498602
          -0.35255399346 0.016716400161 0.25871700048 -0.169242993 0.019168399274 -0.0072063799016
          -0.35255399346 0.016716400161 0.25871700048 -0.16119599342 0.084271103144 0.32078498602
          -0.29486501217 0.23727999628 0.084538802505 -0.169242993 0.019168399274 -0.0072063799016
          -0.16119599342 0.084271103144 0.32078498602 -0.35255399346 0.016716400161 0.25871700048
          -0.29486501217 0.23727999628 0.084538802505 -0.38609901071 0.25310799479 0.3300819993
          -0.16925099492 0.29148900509 0.27573001385 -0.16119599342 0.084271103144 0.32078498602
          -0.29486501217 0.23727999628 0.084538802505 -0.38609901071 0.25310799479 0.3300819993
          -0.29486501217 0.23727999628 0.084538802505 -0.16119599342 0.084271103144 0.32078498602
          -0.16925099492 0.29148900509 0.27573001385 -0.042902801186 0.13622699678 0.15243600309
          -0.16119599342 0.084271103144 0.32078498602 -0.042902801186 0.13622699678 0.15243600309
          -0.29486501217 0.23727999628 0.084538802505 -0.169242993 0.019168399274 -0.0072063799016
          -0.16119599342 0.084271103144 0.32078498602 0.057354498655 0.2768329978 0.30196899176
          -0.16925099492 0.29148900509 0.27573001385 -0.042902801186 0.13622699678 0.15243600309
          -0.16119599342 0.084271103144 0.32078498602 0.028599999845 -0.025005400181 0.30730199814
          0.057354498655 0.2768329978 0.30196899176 -0.042902801186 0.13622699678 0.15243600309
          -0.16119599342 0.084271103144 0.32078498602 0.028599999845 -0.025005400181 0.30730199814
          0.083770796657 0.16607399285 0.5 0.057354498655 0.2768329978 0.30196899176
          -0.16119599342 0.084271103144 0.32078498602 -0.10500200093 -0.014513599686 0.5
          0.083770796657 0.16607399285 0.5 0.028599999845 -0.025005400181 0.30730199814
          -4.3976202011 -0.16255900264 0.25912800431 -4.5130600929 -0.32579600811 0.18804700673
          -4.5459198952 -0.24766799808 0.5 -4.3996100426 -0.5 0.31058299541
          -4.5130600929 -0.32579600811 0.18804700673 -4.3976202011 -0.16255900264 0.25912800431
          -4.2715802193 -0.32873600721 0.20494799316 -4.3996100426 -0.5 0.31058299541
          2.0320599079 -0.29999300838 -0.11793000251 1.8699899912 -0.30787700415 -0.26772201061
          2.2389800549 -0.33469301462 -0.31423199177 2.042320013 -0.28687000275 -0.5
          2.0320599079 -0.29999300838 -0.11793000251 1.8699899912 -0.30787700415 -0.26772201061
          2.1141200066 -0.5 -0.35961300135 2.2389800549 -0.33469301462 -0.31423199177
          2.2389800549 -0.33469301462 -0.31423199177 1.9810800552 -0.5 -0.19643999636
          2.1141200066 -0.5 -0.35961300135 2.0320599079 -0.29999300838 -0.11793000251
          2.1369900703 -0.5 -0.054951798171 1.9810800552 -0.5 -0.19643999636
          2.2389800549 -0.33469301462 -0.31423199177 2.0320599079 -0.29999300838 -0.11793000251
          2.2389800549 -0.33469301462 -0.31423199177 2.2314100266 -0.30056801438 0.0065283500589
          2.1369900703 -0.5 -0.054951798171 2.0320599079 -0.29999300838 -0.11793000251
          2.1369900703 -0.5 -0.054951798171 2.3567500114 -0.5 -0.25275498629
          2.2314100266 -0.30056801438 0.0065283500589 2.2389800549 -0.33469301462 -0.31423199177
          2.1369900703 -0.5 -0.054951798171 2.2389800549 -0.33469301462 -0.31423199177
          2.1141200066 -0.5 -0.35961300135 2.3567500114 -0.5 -0.25275498629
          2.1369900703 -0.5 -0.054951798171 1.9810800552 -0.5 -0.19643999636
          2.1141200066 -0.5 -0.35961300135 2.2389800549 -0.33469301462 -0.31423199177
          2.2314100266 -0.30056801438 0.0065283500589 2.4389500618 -0.2577829957 -0.080456696451
          2.2389800549 -0.33469301462 -0.31423199177 2.3567500114 -0.5 -0.25275498629
          2.2389800549 -0.33469301462 -0.31423199177 2.3567500114 -0.5 -0.25275498629
          2.4389500618 -0.2577829957 -0.080456696451 2.4597499371 -0.30076900125 -0.3059630096
          2.2389800549 -0.33469301462 -0.31423199177 1.8699899912 -0.30787700415 -0.26772201061
          2.1141200066 -0.5 -0.35961300135 2.042320013 -0.28687000275 -0.5
          2.2389800549 -0.33469301462 -0.31423199177 2.042320013 -0.28687000275 -0.5
          2.1141200066 -0.5 -0.35961300135 2.3412098885 -0.33859500289 -0.5
          -0.6270070076 -0.18018999696 -0.18880400062 -0.81901800632 -0.064964897931 -0.069114297628
          -0.78096401691 -0.28885498643 -0.091540999711 -0.7856760025 -0.061230801046 -0.29652500153
          -0.6270070076 -0.18018999696 -0.18880400062 -0.77074998617 -0.30250000954 -0.3132340014
          -0.78096401691 -0.28885498643 -0.091540999711 -0.59884798527 -0.5 -0.081100203097
          -0.77074998617 -0.30250000954 -0.3132340014 -0.86342602968 -0.5 -0.2539960146
          -0.93913400173 -0.20071199536 -0.20192199945 -0.78096401691 -0.28885498643 -0.091540999711
          2.6540100574 0.30316799879 0.029222900048 2.6206200123 0.32416799664 0.30228099227
          2.4481799603 0.24948500097 0.0013240700355 2.4116399288 0.33501198888 0.26824301481
          2.6540100574 0.30316799879 0.029222900048 2.6889400482 0.16072399914 0.18579299748
          2.4481799603 0.24948500097 0.0013240700355 2.6206200123 0.32416799664 0.30228099227
          2.6206200123 0.32416799664 0.30228099227 2.6889400482 0.16072399914 0.18579299748
          2.4481799603 0.24948500097 0.0013240700355 2.4116399288 0.33501198888 0.26824301481
          2.6889400482 0.16072399914 0.18579299748 2.6206200123 0.32416799664 0.30228099227
          2.4428100586 0.10961800069 0.26388600469 2.4116399288 0.33501198888 0.26824301481
          2.6889400482 0.16072399914 0.18579299748 2.6219000816 -0.015453300439 0.30282199383
          2.4428100586 0.10961800069 0.26388600469 2.6206200123 0.32416799664 0.30228099227
          2.6889400482 0.16072399914 0.18579299748 2.6219000816 -0.015453300439 0.30282199383
          2.6206200123 0.32416799664 0.30228099227 2.5758199692 0.075252600014 0.5
          2.6206200123 0.32416799664 0.30228099227 2.6219000816 -0.015453300439 0.30282199383
          2.4428100586 0.10961800069 0.26388600469 2.5758199692 0.075252600014 0.5
          2.5758199692 0.075252600014 0.5 2.4428100586 0.10961800069 0.26388600469
          2.6206200123 0.32416799664 0.30228099227 2.4715499878 0.29645401239 0.5
          2.6206200123 0.32416799664 0.30228099227 2.4715499878 0.29645401239 0.5
          2.4428100586 0.10961800069 0.26388600469 2.4116399288 0.33501198888 0.26824301481
          3.678839922 -0.28315201402 0.29635599256 3.8265800476 -0.00065459497273 0.32086899877
          3.8831400871 -0.19151799381 0.5 3.7090001106 -0.1736509949 0.5
          3.678839922 -0.28315201402 0.29635599256 3.8265800476 -0.00065459497273 0.32086899877
          3.8753499985 -0.34310999513 0.22761000693 3.8831400871 -0.19151799381 0.5
          4.039850235 -0.20272299647 0.21478900313 3.8831400871 -0.19151799381 0.5
          3.8753499985 -0.34310999513 0.22761000693 3.8265800476 -0.00065459497273 0.32086899877
          4.039850235 -0.20272299647 0.21478900313 3.993170023 -0.055373799056 0.5
          3.8831400871 -0.19151799381 0.5 3.8265800476 -0.00065459497273 0.32086899877
          -3.8540000916 -0.5 0.28207299113 -3.9475998878 -0.42686000466 0.5
          -3.8883500099 -0.22696000338 0.22436200082 -3.7068300247 -0.31349000335 0.29142400622
          -3.8540000916 -0.5 0.28207299113 -3.9475998878 -0.42686000466 0.5
          -3.7068300247 -0.31349000335 0.29142400622 -3.7172999382 -0.46028399467 0.5
          -3.7068300247 -0.31349000335 0.29142400622 -3.9475998878 -0.42686000466 0.5
          -3.725509882 -0.28060400486 0.5 -3.7172999382 -0.46028399467 0.5
          -3.7068300247 -0.31349000335 0.29142400622 -3.7172999382 -0.46028399467 0.5
          -3.725509882 -0.28060400486 0.5 -3.5468900204 -0.30179598927 0.5
          4.7696099281 -0.016697799787 -0.29300200939 4.7783799171 -0.058915100992 0.015639599413
          4.6962199211 -0.21809899807 -0.17522199452 4.5178999901 -0.10659900308 -0.17478400469
          4.7696099281 -0.016697799787 -0.29300200939 4.5178999901 -0.10659900308 -0.17478400469
          4.6962199211 -0.21809899807 -0.17522199452 4.5256800652 -0.098457798362 -0.5
          -3.7068300247 -0.31349000335 0.29142400622 -3.776599884 -0.0024208100513 0.27819898725
          -3.6482999325 -0.031938001513 0.5 -3.725509882 -0.28060400486 0.5
          -3.725509882 -0.28060400486 0.5 -3.7068300247 -0.31349000335 0.29142400622
          -3.776599884 -0.0024208100513 0.27819898725 -3.8706200123 -0.17432299256 0.5
          -3.7068300247 -0.31349000335 0.29142400622 -3.9475998878 -0.42686000466 0.5
          -3.8706200123 -0.17432299256 0.5 -3.725509882 -0.28060400486 0.5
          -3.8883500099 -0.22696000338 0.22436200082 -3.9475998878 -0.42686000466 0.5
          -3.8706200123 -0.17432299256 0.5 -3.7068300247 -0.31349000335 0.29142400622
          -3.7068300247 -0.31349000335 0.29142400622 -3.8883500099 -0.22696000338 0.22436200082
          -3.776599884 -0.0024208100513 0.27819898725 -3.8706200123 -0.17432299256 0.5
          4.2901201248 -0.17937499285 0.5 4.2180900574 0.013842199929 0.5
          4.2926101685 0.022265100852 0.30176800489 4.390999794 0.12619799376 0.5
          4.390999794 0.12619799376 0.5 4.5424098969 -0.083453699946 0.5
          4.2926101685 0.022265100852 0.30176800489 4.2901201248 -0.17937499285 0.5
          4.390999794 0.12619799376 0.5 4.5424098969 -0.083453699946 0.5
          4.5015702248 0.045086801052 0.27461698651 4.2926101685 0.022265100852 0.30176800489
          4.2926101685 0.022265100852 0.30176800489 4.4985699654 0.29182401299 0.2750479877
          4.5015702248 0.045086801052 0.27461698651 4.390999794 0.12619799376 0.5
          4.5424098969 -0.083453699946 0.5 4.5015702248 0.045086801052 0.27461698651
          4.2926101685 0.022265100852 0.30176800489 4.4824900627 -0.2778429985 0.28902798891
          4.5424098969 -0.083453699946 0.5 4.4824900627 -0.2778429985 0.28902798891
          4.2926101685 0.022265100852 0.30176800489 4.2901201248 -0.17937499285 0.5
          4.2926101685 0.022265100852 0.30176800489 4.4824900627 -0.2778429985 0.28902798891
          4.3434801102 -0.13885499537 0.17381000519 4.2901201248 -0.17937499285 0.5
          4.2926101685 0.022265100852 0.30176800489 4.5015702248 0.045086801052 0.27461698651
          4.3434801102 -0.13885499537 0.17381000519 4.4824900627 -0.2778429985 0.28902798891
          4.2926101685 0.022265100852 0.30176800489 4.0886101723 0.063145399094 0.2613709867
          4.0779399872 0.0020779399201 -0.0058176601306 4.317220211 0.013630899601 -0.032561101019
          4.2926101685 0.022265100852 0.30176800489 4.0886101723 0.063145399094 0.2613709867
          4.317220211 0.013630899601 -0.032561101019 4.3127498627 0.19265699387 0.16710400581
          2.94404006 -0.24824899435 0.048307999969 2.7103700638 -0.17533199489 0.17696000636
          2.797960043 -0.29616799951 0.32714900374 2.7222399712 -0.5 0.087961599231
          2.797960043 -0.29616799951 0.32714900374 2.6250600815 -0.5 0.26846000552
          2.7222399712 -0.5 0.087961599231 2.7103700638 -0.17533199489 0.17696000636
          2.797960043 -0.29616799951 0.32714900374 2.4458899498 -0.25059598684 0.23923400044
          2.6250600815 -0.5 0.26846000552 2.7103700638 -0.17533199489 0.17696000636
          2.6795399189 -0.26569700241 0.5 2.4458899498 -0.25059598684 0.23923400044
          2.6250600815 -0.5 0.26846000552 2.797960043 -0.29616799951 0.32714900374
          2.8543798923 -0.5 0.31709998846 2.6250600815 -0.5 0.26846000552
          2.7222399712 -0.5 0.087961599231 2.797960043 -0.29616799951 0.32714900374
          2.797960043 -0.29616799951 0.32714900374 2.8543798923 -0.5 0.31709998846
          2.9252800941 -0.5 0.11620400101 2.7222399712 -0.5 0.087961599231
          2.8543798923 -0.5 0.31709998846 2.9252800941 -0.5 0.11620400101
          2.9692099094 -0.18215200305 0.27709600329 2.797960043 -0.29616799951 0.32714900374
          2.8543798923 -0.5 0.31709998846 2.9692099094 -0.18215200305 0.27709600329
          3.0828099251 -0.5 0.29510200024 2.797960043 -0.29616799951 0.32714900374
          -0.95835602283 -0.27399000525 0.5 -1.2460000515 -0.40172600746 0.5
          -0.99834597111 -0.5 0.33863401413 -1.1465300322 -0.23797599971 0.5
          2.2269999981 0.29644799232 0.5 2.2194900513 -0.0036427800078 0.3248629868
          2.1986699104 0.16770100594 0.18445199728 2.1093399525 0.13601699471 0.5
          2.0367600918 0.30077698827 0.30471900105 2.1093399525 0.13601699471 0.5
          2.1986699104 0.16770100594 0.18445199728 1.9551000595 0.040498699993 0.28340399265
          1.51098001 0.18941000104 -0.5 1.5757000446 -0.01348510012 -0.5
          1.3415499926 0.046351000667 -0.2966940105 1.6074999571 0.030789300799 -0.26509699225
          1.5281399488 0.5 -0.39227798581 1.4860899448 0.23913800716 -0.2658199966
          1.6173299551 0.34555700421 -0.5 1.4269900322 0.36090099812 -0.5
          1.3224300146 0.5 -0.35919898748 1.4269900322 0.36090099812 -0.5
          1.4860899448 0.23913800716 -0.2658199966 1.5281399488 0.5 -0.39227798581
          1.3224300146 0.5 -0.35919898748 1.4269900322 0.36090099812 -0.5
          1.2371799946 0.38177201152 -0.5 1.3222500086 0.19783599675 -0.5
          1.3224300146 0.5 -0.35919898748 1.3222500086 0.19783599675 -0.5
          1.4860899448 0.23913800716 -0.2658199966 1.4269900322 0.36090099812 -0.5
          1.4269900322 0.36090099812 -0.5 1.4860899448 0.23913800716 -0.2658199966
          1.51098001 0.18941000104 -0.5 1.3222500086 0.19783599675 -0.5
          1.4269900322 0.36090099812 -0.5 1.4860899448 0.23913800716 -0.2658199966
          1.6173299551 0.34555700421 -0.5 1.51098001 0.18941000104 -0.5
          -4.8773698807 0.1690479964 0.5 -4.6812400818 0.14698000252 0.1767770052
          -4.6791801453 0.16429899633 0.5 -4.7674899101 0.33730000257 0.27226099372
          -4.5152201653 0.17846100032 0.5 -4.5181999207 0.028785899282 0.28230598569
          -4.6791801453 0.16429899633 0.5 -4.513229847 -0.036582600325 0.5
          -4.4446802139 0.5 0.46802300215 -4.4165802002 0.22745400667 0.23878499866
          -4.5665698051 0.35982298851 0.5 -4.2659602165 0.28228399158 0.5
          -4.6675601006 -0.16073800623 -0.17753699422 -4.5859699249 -0.5 -0.20652399957
          -4.7461600304 -0.5 -0.23019599915 -4.6199498177 -0.5 -0.060735598207
          -2.5264899731 0.5 -0.0051567801274 -2.6367399693 0.26534798741 0.078260503709
          -2.5539898872 0.16441999376 -0.075327299535 -2.6490800381 0.5 -0.17990100384
          -3.5893199444 0.032997198403 -0.29434099793 -3.6039199829 -0.1486119926 -0.1880979985
          -3.387419939 -0.020452000201 -0.26496699452 -3.406719923 -0.26567399502 -0.27803298831
          -3.3937699795 -0.1384550035 -0.5 -3.5893199444 0.032997198403 -0.29434099793
          -3.387419939 -0.020452000201 -0.26496699452 -3.406719923 -0.26567399502 -0.27803298831
          -3.3937699795 -0.1384550035 -0.5 -3.6039199829 -0.1486119926 -0.1880979985
          -3.5893199444 0.032997198403 -0.29434099793 -3.406719923 -0.26567399502 -0.27803298831
          -3.5893199444 0.032997198403 -0.29434099793 -3.7030899525 -0.27636900544 -0.5
          -3.7646200657 -0.015583699569 -0.5 -3.6039199829 -0.1486119926 -0.1880979985
          2.3842000961 -0.1629229933 0.5 2.1368100643 -0.22857700288 0.5
          2.2669200897 -0.32125800848 0.30331799388 2.2194900513 -0.0036427800078 0.3248629868
          -1.9522600174 -0.011583000422 -0.29229301214 -2.1682898998 -0.037599701434 -0.23476999998
          -2.0386500359 -0.018439799547 -0.5 -2.0428700447 0.13684900105 -0.5
          -1.5096600056 -0.035843800753 0.024828599766 -1.4028300047 -0.15640300512 -0.13328300416
          -1.3964400291 -0.3062709868 0.030771600083 -1.3192800283 -0.11339899898 0.070827797055
          -1.5096600056 -0.035843800753 0.024828599766 -1.4028300047 -0.15640300512 -0.13328300416
          -1.3192800283 -0.11339899898 0.070827797055 -1.2951300144 0.045372098684 -0.065485596657
          -1.3192800283 -0.11339899898 0.070827797055 -1.4028300047 -0.15640300512 -0.13328300416
          -1.1855100393 -0.25224798918 -0.0140108997 -1.2951300144 0.045372098684 -0.065485596657
          -1.3192800283 -0.11339899898 0.070827797055 -1.2951300144 0.045372098684 -0.065485596657
          -1.1855100393 -0.25224798918 -0.0140108997 -1.0750999451 -0.011404699646 0.007108009886
          -1.3192800283 -0.11339899898 0.070827797055 -1.1855100393 -0.25224798918 -0.0140108997
          -1.1246000528 -0.21291700006 0.24169400334 -1.0750999451 -0.011404699646 0.007108009886
          -1.1438100338 0.013993400149 0.21154500544 -1.3192800283 -0.11339899898 0.070827797055
          -1.1246000528 -0.21291700006 0.24169400334 -1.0750999451 -0.011404699646 0.007108009886
          -1.1438100338 0.013993400149 0.21154500544 -1.2951300144 0.045372098684 -0.065485596657
          -1.3192800283 -0.11339899898 0.070827797055 -1.0750999451 -0.011404699646 0.007108009886
          -1.3192800283 -0.11339899898 0.070827797055 -1.1855100393 -0.25224798918 -0.0140108997
          -1.3444800377 -0.30236798525 0.28137201071 -1.1246000528 -0.21291700006 0.24169400334
          3.9115200043 0.5 0.15832599998 3.8664000034 0.19483299553 0.16909499466
          3.9605000019 0.5 0.34884899855 4.1333699226 0.29578199983 0.28484800458
          4.0785198212 0.2688550055 0.022481000051 4.1333699226 0.29578199983 0.28484800458
          3.8664000034 0.19483299553 0.16909499466 3.9115200043 0.5 0.15832599998
          3.803839922 0.5 0.0072177099064 3.867939949 0.29484701157 -0.023631099612
          3.730230093 0.5 0.19785399735 3.9115200043 0.5 0.15832599998
          1.2388900518 -0.17473700643 -0.16655999422 1.2840600014 -0.15874500573 -0.5
          1.3097499609 -0.32079198956 -0.30054301023 1.4673299789 -0.16130299866 -0.30513200164
          1.2840600014 -0.15874500573 -0.5 1.2388900518 -0.17473700643 -0.16655999422
          1.3097499609 -0.32079198956 -0.30054301023 1.139539957 -0.036767199636 -0.30390501022
          1.2840600014 -0.15874500573 -0.5 1.3097499609 -0.32079198956 -0.30054301023
          1.0735499859 -0.2803800106 -0.2859480083 1.139539957 -0.036767199636 -0.30390501022
          1.2840600014 -0.15874500573 -0.5 1.3097499609 -0.32079198956 -0.30054301023
          1.1912800074 -0.33144798875 -0.5 1.0735499859 -0.2803800106 -0.2859480083
          1.3097499609 -0.32079198956 -0.30054301023 1.1912800074 -0.33144798875 -0.5
          1.3746500015 -0.33837598562 -0.5 1.2840600014 -0.15874500573 -0.5
          1.3097499609 -0.32079198956 -0.30054301023 1.2840600014 -0.15874500573 -0.5
          1.3746500015 -0.33837598562 -0.5 1.4673299789 -0.16130299866 -0.30513200164
          3.3437099457 0.5 0.098416596651 3.1571199894 0.5 0.16706800461
          3.353579998 0.25871399045 0.31244799495 3.3688399792 0.28460401297 0.022468499839
          1.3097499609 -0.32079198956 -0.30054301023 1.2955499887 -0.5 -0.41003099084
          1.3746500015 -0.33837598562 -0.5 1.1912800074 -0.33144798875 -0.5
          1.2955499887 -0.5 -0.41003099084 1.0735499859 -0.2803800106 -0.2859480083
          1.1912800074 -0.33144798875 -0.5 1.3097499609 -0.32079198956 -0.30054301023
          1.0735499859 -0.2803800106 -0.2859480083 1.2955499887 -0.5 -0.41003099084
          1.0327399969 -0.5 -0.23253199458 1.3097499609 -0.32079198956 -0.30054301023
          1.0735499859 -0.2803800106 -0.2859480083 1.3097499609 -0.32079198956 -0.30054301023
          1.0327399969 -0.5 -0.23253199458 1.2443100214 -0.5 -0.079079799354
          1.2443100214 -0.5 -0.079079799354 1.0735499859 -0.2803800106 -0.2859480083
          1.3097499609 -0.32079198956 -0.30054301023 1.2388900518 -0.17473700643 -0.16655999422
          1.3097499609 -0.32079198956 -0.30054301023 1.2388900518 -0.17473700643 -0.16655999422
          1.0735499859 -0.2803800106 -0.2859480083 1.139539957 -0.036767199636 -0.30390501022
          1.3097499609 -0.32079198956 -0.30054301023 1.2955499887 -0.5 -0.41003099084
          1.0327399969 -0.5 -0.23253199458 1.2443100214 -0.5 -0.079079799354
          1.2443100214 -0.5 -0.079079799354 1.2955499887 -0.5 -0.41003099084
          1.391010046 -0.5 -0.2258079946 1.3097499609 -0.32079198956 -0.30054301023
          0.14069800079 0.16885900497 -0.17604699731 0.075165897608 0.5 -0.16578200459
          -0.020521700382 0.27518200874 -0.3097819984 0.22253899276 0.29792100191 -0.30861100554
          0.22253899276 0.29792100191 -0.30861100554 0.075165897608 0.5 -0.16578200459
          0.27108699083 0.5 -0.08351060003 0.20313000679 0.30061998963 0.0047877700999
          0.2306600064 0.5 -0.31376600266 0.35873600841 0.27615499496 -0.16060699522
          0.42726400495 0.5 -0.227602005 0.22253899276 0.29792100191 -0.30861100554
          0.2306600064 0.5 -0.31376600266 0.22253899276 0.29792100191 -0.30861100554
          0.27108699083 0.5 -0.08351060003 0.35873600841 0.27615499496 -0.16060699522
          4.5178999901 -0.10659900308 -0.17478400469 4.6962199211 -0.21809899807 -0.17522199452
          4.4999699593 -0.30107301474 -0.267922014 4.5181698799 -0.25569599867 -0.00080205698032
          0.45764601231 0.28433001041 0.29305499792 0.25995999575 0.5 0.30666300654
          0.33892700076 0.20277099311 0.5 0.25142499804 0.20395800471 0.20601199567
          -1.1246000528 -0.21291700006 0.24169400334 -1.1855100393 -0.25224798918 -0.0140108997
          -1.2431999445 -0.5 0.20165300369 -1.1115700006 -0.5 0.061790000647
          -1.1855100393 -0.25224798918 -0.0140108997 -1.3964400291 -0.3062709868 0.030771600083
          -1.2431999445 -0.5 0.20165300369 -1.1115700006 -0.5 0.061790000647
          -1.1855100393 -0.25224798918 -0.0140108997 -1.3964400291 -0.3062709868 0.030771600083
          -1.1115700006 -0.5 0.061790000647 -1.1987999678 -0.5 -0.10932199657
          -1.0007799864 -0.5 -0.1113319993 -1.1987999678 -0.5 -0.10932199657
          -1.1855100393 -0.25224798918 -0.0140108997 -1.1115700006 -0.5 0.061790000647
          -1.1115700006 -0.5 0.061790000647 -1.3964400291 -0.3062709868 0.030771600083
          -1.2431999445 -0.5 0.20165300369 -1.1987999678 -0.5 -0.10932199657
          4.0779399872 0.0020779399201 -0.0058176601306 3.8664000034 0.19483299553 0.16909499466
          4.0886101723 0.063145399094 0.2613709867 3.9352300167 -0.034624699503 0.14412599802
          4.0779399872 0.0020779399201 -0.0058176601306 4.0886101723 0.063145399094 0.2613709867
          4.039850235 -0.20272299647 0.21478900313 3.9352300167 -0.034624699503 0.14412599802
          3.9352300167 -0.034624699503 0.14412599802 4.0886101723 0.063145399094 0.2613709867
          4.039850235 -0.20272299647 0.21478900313 3.8265800476 -0.00065459497273 0.32086899877
          3.9352300167 -0.034624699503 0.14412599802 3.8664000034 0.19483299553 0.16909499466
          4.0886101723 0.063145399094 0.2613709867 3.8265800476 -0.00065459497273 0.32086899877
          3.6606800556 0.057222399861 0.047008000314 3.8664000034 0.19483299553 0.16909499466
          3.9352300167 -0.034624699503 0.14412599802 3.8265800476 -0.00065459497273 0.32086899877
          3.6606800556 0.057222399861 0.047008000314 3.9352300167 -0.034624699503 0.14412599802
          3.7557299137 -0.14269599319 0.12685400248 3.8265800476 -0.00065459497273 0.32086899877
          -1.1722400188 -0.078797601163 -0.24050499499 -1.1352299452 -0.30921301246 -0.27610599995
          -0.93913400173 -0.20071199536 -0.20192199945 -0.98949998617 -0.096335403621 -0.5
          -1.1455899477 -0.027385700494 -0.5 -1.1352299452 -0.30921301246 -0.27610599995
          -1.1722400188 -0.078797601163 -0.24050499499 -0.98949998617 -0.096335403621 -0.5
          -1.1455899477 -0.027385700494 -0.5 -1.1352299452 -0.30921301246 -0.27610599995
          -0.98949998617 -0.096335403621 -0.5 -1.0093300343 -0.26582100987 -0.5
          -0.98949998617 -0.096335403621 -0.5 -1.1352299452 -0.30921301246 -0.27610599995
          -0.93913400173 -0.20071199536 -0.20192199945 -1.0093300343 -0.26582100987 -0.5
          -0.98949998617 -0.096335403621 -0.5 -1.0093300343 -0.26582100987 -0.5
          -0.93913400173 -0.20071199536 -0.20192199945 -0.77074998617 -0.30250000954 -0.3132340014
          -0.7581089735 -0.15487499535 -0.5 -1.0093300343 -0.26582100987 -0.5
          -0.98949998617 -0.096335403621 -0.5 -0.77074998617 -0.30250000954 -0.3132340014
          -2.2036099434 0.092982001603 -0.086743198335 -2.1682898998 -0.037599701434 -0.23476999998
          -2.0033299923 0.17082899809 -0.16009199619 -2.1895999908 0.28031998873 -0.27681100368
          -0.17599500716 -0.47140499949 -0.5 -0.38922300935 -0.43621999025 -0.5
          -0.1279810071 -0.26361098886 -0.5 -0.29023098946 -0.5 -0.36567699909
          -0.38922300935 -0.43621999025 -0.5 -0.56736600399 -0.5 -0.39558899403
          -0.48361599445 -0.5 -0.22838500142 -0.29023098946 -0.5 -0.36567699909
          -0.38922300935 -0.43621999025 -0.5 -0.48361599445 -0.5 -0.22838500142
          -0.47420999408 -0.29338499904 -0.29220598936 -0.29023098946 -0.5 -0.36567699909
          -0.38922300935 -0.43621999025 -0.5 -0.47420999408 -0.29338499904 -0.29220598936
          -0.29398798943 -0.19200000167 -0.2282319963 -0.29023098946 -0.5 -0.36567699909
          -0.29023098946 -0.5 -0.36567699909 -0.38922300935 -0.43621999025 -0.5
          -0.1279810071 -0.26361098886 -0.5 -0.29398798943 -0.19200000167 -0.2282319963
          2.0216500759 0.22515000403 -0.27024498582 2.2007598877 0.32477998734 -0.29550099373
          2.2796599865 0.15909999609 -0.20078100264 2.0588099957 0.16667899489 -0.072469100356
          2.2155299187 0.29384601116 -0.016047000885 2.2502601147 0.5 -0.1980600059
          2.2007598877 0.32477998734 -0.29550099373 2.2796599865 0.15909999609 -0.20078100264
          2.0984899998 0.5 -0.030215999112 2.2502601147 0.5 -0.1980600059
          2.0364201069 0.5 -0.27101698518 2.2007598877 0.32477998734 -0.29550099373
          -1.1475800276 0.23044300079 0.22876000404 -1.29381001 0.12503300607 0.31571400166
          -1.0791499615 0.061705000699 0.5 -1.1438100338 0.013993400149 0.21154500544
          -1.1475800276 0.23044300079 0.22876000404 -1.241230011 0.18273699284 0.5
          -1.0791499615 0.061705000699 0.5 -1.29381001 0.12503300607 0.31571400166
          4.1898999214 0.32223001122 -0.31539100409 4.0785198212 0.2688550055 0.022481000051
          4.2944598198 0.20695400238 -0.17472800612 4.0157899857 0.23598599434 -0.23627699912
          4.2944598198 0.20695400238 -0.17472800612 4.1566100121 -0.01251959987 -0.28246301413
          4.1898999214 0.32223001122 -0.31539100409 4.0157899857 0.23598599434 -0.23627699912
          4.2944598198 0.20695400238 -0.17472800612 4.1566100121 -0.01251959987 -0.28246301413
          4.2942700386 0.099316298962 -0.5 4.1898999214 0.32223001122 -0.31539100409
          -4.8052501678 -0.030253799632 0.27854898572 -5 0.15884299576 0.21330599487
          -4.7674899101 0.33730000257 0.27226099372 -4.8773698807 0.1690479964 0.5
          -5 0.15884299576 0.21330599487 -5 0.32793700695 0.27663400769
          -4.7674899101 0.33730000257 0.27226099372 -4.8773698807 0.1690479964 0.5
          -5 0.32793700695 0.27663400769 -5 0.3144119978 0.46769100428
          -4.7674899101 0.33730000257 0.27226099372 -4.8773698807 0.1690479964 0.5
          -4.7674899101 0.33730000257 0.27226099372 -5 0.3144119978 0.46769100428
          -4.7492098808 0.3132250011 0.5 -4.8773698807 0.1690479964 0.5
          -3.595760107 0.14106500149 0.5 -3.6287798882 0.30937200785 0.33959800005
          -3.7529900074 0.32859098911 0.5 -3.7759699821 0.12645199895 0.5
          2.0588099957 0.16667899489 -0.072469100356 2.2796599865 0.15909999609 -0.20078100264
          2.0216500759 0.22515000403 -0.27024498582 2.1815600395 -0.001020470052 -0.32536798716
          2.0588099957 0.16667899489 -0.072469100356 2.1986699104 0.16770100594 0.18445199728
          1.9567300081 0.0023706499487 0.0081458101049 1.9609899521 0.27691298723 0.076514601707
          -4.2659602165 0.28228399158 0.5 -3.9800200462 0.29855400324 0.5
          -4.1248002052 0.32227998972 0.33130601048 -4.1556100845 0.12476799637 0.5
          -4.2407898903 -0.014909300022 0.29183000326 -4.2659602165 0.28228399158 0.5
          -4.1556100845 0.12476799637 0.5 -4.3030099869 0.0012274599867 0.5
          2.2194900513 -0.0036427800078 0.3248629868 2.0954899788 -0.062455501407 0.5
          1.9551000595 0.040498699993 0.28340399265 2.1093399525 0.13601699471 0.5
          1.8845000267 0.5 -0.10376700014 2.0984899998 0.5 -0.030215999112
          2.0364201069 0.5 -0.27101698518 1.9183299541 0.30307900906 -0.11740200222
          1.9183299541 0.30307900906 -0.11740200222 1.7531599998 0.5 0.036465600133
          1.8845000267 0.5 -0.10376700014 1.9609899521 0.27691298723 0.076514601707
          1.8845000267 0.5 -0.10376700014 1.9183299541 0.30307900906 -0.11740200222
          1.8882399797 0.5 -0.32798698545 1.6638499498 0.32388100028 -0.30573499203
          1.7617299557 0.19749200344 -0.18400299549 1.9183299541 0.30307900906 -0.11740200222
          2.0216500759 0.22515000403 -0.27024498582 2.0588099957 0.16667899489 -0.072469100356
          -4.8052501678 -0.030253799632 0.27854898572 -4.7207899094 -0.18141900003 0.5
          -5 -0.12896800041 0.37591099739 -4.7226400375 0.0055706598796 0.5
          -4.8052501678 -0.030253799632 0.27854898572 -4.8936700821 -0.25269600749 0.5
          -5 -0.12896800041 0.37591099739 -4.7207899094 -0.18141900003 0.5
          -4.7207899094 -0.18141900003 0.5 -4.8936700821 -0.25269600749 0.5
          -5 -0.12896800041 0.37591099739 -4.7226400375 0.0055706598796 0.5
          3.2970399857 0.30501198769 -0.2939350009 3.0563700199 0.30440598726 -0.29042899609
          3.2905800343 0.095524303615 -0.3324739933 3.2461500168 0.28882101178 -0.5
          3.1808700562 0.17408800125 -0.17278499901 3.0563700199 0.30440598726 -0.29042899609
          3.2905800343 0.095524303615 -0.3324739933 3.2970399857 0.30501198769 -0.2939350009
          3.1808700562 0.17408800125 -0.17278499901 3.0563700199 0.30440598726 -0.29042899609
          3.0909199715 0.094946503639 -0.5 3.2905800343 0.095524303615 -0.3324739933
          3.2905800343 0.095524303615 -0.3324739933 3.0563700199 0.30440598726 -0.29042899609
          3.0909199715 0.094946503639 -0.5 3.2461500168 0.28882101178 -0.5
          -2.568860054 0.328433007 0.33221000433 -2.4461400509 0.30663898587 0.5
          -2.4325098991 0.0032291798852 0.31787699461 -2.6128799915 0.13250499964 0.27421799302
          -2.568860054 0.328433007 0.33221000433 -2.332449913 0.5 0.39009299874
          -2.2191998959 0.31082698703 0.26025301218 -2.4461400509 0.30663898587 0.5
          -2.568860054 0.328433007 0.33221000433 -2.6573500633 0.5 0.4123570025
          -2.332449913 0.5 0.39009299874 -2.4461400509 0.30663898587 0.5
          -2.4461400509 0.30663898587 0.5 -2.6573500633 0.5 0.4123570025
          -2.739109993 0.35740399361 0.5 -2.568860054 0.328433007 0.33221000433
          -2.4461400509 0.30663898587 0.5 -2.568860054 0.328433007 0.33221000433
          -2.739109993 0.35740399361 0.5 -2.6651101112 0.18645100296 0.5
          -2.568860054 0.328433007 0.33221000433 -2.7599999905 0.5 0.28317898512
          -2.6573500633 0.5 0.4123570025 -2.739109993 0.35740399361 0.5
          -2.568860054 0.328433007 0.33221000433 -2.8607199192 0.16806200147 0.1988620013
          -2.7599999905 0.5 0.28317898512 -2.739109993 0.35740399361 0.5
          1.4243400097 -0.5 0.34605500102 1.4891799688 -0.27188199759 0.26980000734
          1.3733700514 -0.33255699277 0.11544699967 1.6352499723 -0.5 0.19289499521
          0.2306600064 0.5 -0.31376600266 0.42726400495 0.5 -0.227602005
          0.42863300443 0.48355901241 -0.5 0.49744200706 0.32136800885 -0.31016400456
          0.42863300443 0.48355901241 -0.5 0.42726400495 0.5 -0.227602005
          0.70003300905 0.45500999689 -0.5 0.49744200706 0.32136800885 -0.31016400456
          0.49744200706 0.32136800885 -0.31016400456 0.42726400495 0.5 -0.227602005
          0.70003300905 0.45500999689 -0.5 0.70714598894 0.5 -0.22382299602
          0.70714598894 0.5 -0.22382299602 0.56476098299 0.5 -0.044713400304
          0.49744200706 0.32136800885 -0.31016400456 0.42726400495 0.5 -0.227602005
          0.70714598894 0.5 -0.22382299602 0.56476098299 0.5 -0.044713400304
          0.58461797237 0.18660899997 -0.17640599608 0.49744200706 0.32136800885 -0.31016400456
          0.58461797237 0.18660899997 -0.17640599608 0.49744200706 0.32136800885 -0.31016400456
          0.56476098299 0.5 -0.044713400304 0.35873600841 0.27615499496 -0.16060699522
          0.49744200706 0.32136800885 -0.31016400456 0.42726400495 0.5 -0.227602005
          0.56476098299 0.5 -0.044713400304 0.35873600841 0.27615499496 -0.16060699522
          5 -0.41344600916 0.33176600933 4.8106999397 -0.29430899024 0.31109198928
          4.8925499916 -0.35197499394 0.5 4.8184399605 -0.5 0.27545198798
          5 -0.41344600916 0.33176600933 5 -0.20979200304 0.28537601233
          4.8925499916 -0.35197499394 0.5 4.8106999397 -0.29430899024 0.31109198928
          4.9883899689 -0.15072099864 0.5 4.8106999397 -0.29430899024 0.31109198928
          4.8925499916 -0.35197499394 0.5 5 -0.20979200304 0.28537601233
          4.9883899689 -0.15072099864 0.5 4.7967801094 -0.036810200661 0.5
          4.8106999397 -0.29430899024 0.31109198928 5 -0.20979200304 0.28537601233
          4.9883899689 -0.15072099864 0.5 4.7967801094 -0.036810200661 0.5
          4.7622699738 -0.21942800283 0.5 4.8106999397 -0.29430899024 0.31109198928
          4.9883899689 -0.15072099864 0.5 4.7622699738 -0.21942800283 0.5
          4.8925499916 -0.35197499394 0.5 4.8106999397 -0.29430899024 0.31109198928
          4.7622699738 -0.21942800283 0.5 4.7967801094 -0.036810200661 0.5
          4.794479847 -0.0099189598113 0.26575800776 4.8106999397 -0.29430899024 0.31109198928
          4.6710700989 -0.19623799622 0.19057400525 4.7622699738 -0.21942800283 0.5
          4.794479847 -0.0099189598113 0.26575800776 4.8106999397 -0.29430899024 0.31109198928
          4.8106999397 -0.29430899024 0.31109198928 4.7967801094 -0.036810200661 0.5
          4.794479847 -0.0099189598113 0.26575800776 5 -0.20979200304 0.28537601233
          -1.8168400526 0.14203999937 0.32622399926 -1.6647800207 0.24374599755 0.22540199757
          -1.6577099562 0.12280199677 0.5 -1.8413699865 0.28546500206 0.5
          -1.9165099859 0.082864999771 0.5 -1.8168400526 0.14203999937 0.32622399926
          -1.6577099562 0.12280199677 0.5 -1.8413699865 0.28546500206 0.5
          -1.6577099562 0.12280199677 0.5 -1.9165099859 0.082864999771 0.5
          -1.7749300003 -0.093701399863 0.5 -1.8168400526 0.14203999937 0.32622399926
          -1.8168400526 0.14203999937 0.32622399926 -1.8209400177 0.5 0.2201499939
          -1.6647800207 0.24374599755 0.22540199757 -1.8413699865 0.28546500206 0.5
          -0.21006199718 -0.066769301891 -0.5 -0.1279810071 -0.26361098886 -0.5
          -0.29398798943 -0.19200000167 -0.2282319963 -0.11357299984 -0.14485199749 -0.33142700791
          -0.39605501294 0.24562799931 -0.5 -0.47644600272 0.21734400094 -0.22011299431
          -0.63783198595 0.084412999451 -0.319272995 -0.57590299845 0.34252899885 -0.5
          -0.39605501294 0.24562799931 -0.5 -0.63783198595 0.084412999451 -0.319272995
          -0.55288797617 0.023504899815 -0.5 -0.57590299845 0.34252899885 -0.5
          -0.39605501294 0.24562799931 -0.5 -0.47644600272 0.21734400094 -0.22011299431
          -0.55288797617 0.023504899815 -0.5 -0.63783198595 0.084412999451 -0.319272995
          -0.46267700195 -0.020818000659 -0.27643701434 -0.63783198595 0.084412999451 -0.319272995
          -0.55288797617 0.023504899815 -0.5 -0.47644600272 0.21734400094 -0.22011299431
          -0.46267700195 -0.020818000659 -0.27643701434 -0.74285399914 0.13776800036 -0.12904399633
          -0.63783198595 0.084412999451 -0.319272995 -0.47644600272 0.21734400094 -0.22011299431
          -0.63783198595 0.084412999451 -0.319272995 -0.74285399914 0.13776800036 -0.12904399633
          -0.46267700195 -0.020818000659 -0.27643701434 -0.62403798103 0.035430200398 0.037675399333
          -0.63783198595 0.084412999451 -0.319272995 -0.74285399914 0.13776800036 -0.12904399633
          -0.68140697479 0.28639298677 -0.28938999772 -0.47644600272 0.21734400094 -0.22011299431
          -0.68140697479 0.28639298677 -0.28938999772 -0.92764699459 0.27740699053 -0.26456698775
          -0.74285399914 0.13776800036 -0.12904399633 -0.63783198595 0.084412999451 -0.319272995
          -0.57590299845 0.34252899885 -0.5 -0.55288797617 0.023504899815 -0.5
          -0.75955200195 0.2530399859 -0.5 -0.63783198595 0.084412999451 -0.319272995
          -0.63783198595 0.084412999451 -0.319272995 -0.55288797617 0.023504899815 -0.5
          -0.75955200195 0.2530399859 -0.5 -0.72751402855 0.0171670001 -0.5
          -0.46434998512 -0.23358699679 -0.5 -0.63522601128 -0.32412400842 -0.5
          -0.59533298016 -0.13490399718 -0.5 -0.47420999408 -0.29338499904 -0.29220598936
          4.4144301414 0.5 -0.014668799937 4.373770237 0.29578301311 -0.0035506200511
          4.5328998566 0.5 0.15708899498 4.5822200775 0.29958099127 -0.0073895901442
          4.373770237 0.29578301311 -0.0035506200511 4.4985699654 0.29182401299 0.2750479877
          4.5328998566 0.5 0.15708899498 4.5822200775 0.29958099127 -0.0073895901442
          4.373770237 0.29578301311 -0.0035506200511 4.3127498627 0.19265699387 0.16710400581
          4.4985699654 0.29182401299 0.2750479877 4.5822200775 0.29958099127 -0.0073895901442
          2.6477799416 0.16645799577 -0.17383100092 2.8999099731 0.041673701257 -0.29681798816
          2.9201900959 0.0039753098972 -0.016150400043 2.9765999317 0.15742999315 -0.14321500063
          2.8429698944 0.28180000186 -0.27394500375 2.8999099731 0.041673701257 -0.29681798816
          2.6477799416 0.16645799577 -0.17383100092 2.9765999317 0.15742999315 -0.14321500063
          2.2796599865 0.15909999609 -0.20078100264 2.2007598877 0.32477998734 -0.29550099373
          2.0216500759 0.22515000403 -0.27024498582 2.1815600395 -0.001020470052 -0.32536798716
          -1.6324599981 -0.5 0.14717400074 -1.5047199726 -0.5 0.018165400252
          -1.5214099884 -0.5 0.34752699733 -1.3444800377 -0.30236798525 0.28137201071
          -1.5302300453 -0.20296399295 0.1751369983 -1.6324599981 -0.5 0.14717400074
          -1.5214099884 -0.5 0.34752699733 -1.3444800377 -0.30236798525 0.28137201071
          -1.5302300453 -0.20296399295 0.1751369983 -1.6324599981 -0.5 0.14717400074
          -1.3444800377 -0.30236798525 0.28137201071 -1.3964400291 -0.3062709868 0.030771600083
          -1.5302300453 -0.20296399295 0.1751369983 -1.5047199726 -0.5 0.018165400252
          -1.6324599981 -0.5 0.14717400074 -1.3964400291 -0.3062709868 0.030771600083
          -1.6324599981 -0.5 0.14717400074 -1.5047199726 -0.5 0.018165400252
          -1.3444800377 -0.30236798525 0.28137201071 -1.3964400291 -0.3062709868 0.030771600083
          1.142539978 0.300906986 0.29215401411 0.96667098999 0.22423000634 0.21116599441
          1.0831899643 -0.026730500162 0.28337299824 1.2676099539 0.18327300251 0.17430500686
          1.0667099953 0.30986699462 -0.00099666800816 1.2676099539 0.18327300251 0.17430500686
          0.96667098999 0.22423000634 0.21116599441 1.142539978 0.300906986 0.29215401411
          1.0667099953 0.30986699462 -0.00099666800816 1.142539978 0.300906986 0.29215401411
          0.96667098999 0.22423000634 0.21116599441 1.0695999861 0.5 0.21742899716
          1.2676099539 0.18327300251 0.17430500686 1.142539978 0.300906986 0.29215401411
          1.3807200193 0.21050100029 0.5 1.2891700268 0.025188799948 0.31899100542
          1.142539978 0.300906986 0.29215401411 1.3807200193 0.21050100029 0.5
          1.4897999763 0.29271999002 0.26752799749 1.2676099539 0.18327300251 0.17430500686
          1.2936199903 0.35917899013 0.5 1.3807200193 0.21050100029 0.5
          1.4897999763 0.29271999002 0.26752799749 1.142539978 0.300906986 0.29215401411
          1.142539978 0.300906986 0.29215401411 1.1710499525 0.11986300349 0.5
          1.2936199903 0.35917899013 0.5 1.3807200193 0.21050100029 0.5
          1.142539978 0.300906986 0.29215401411 1.1710499525 0.11986300349 0.5
          1.3807200193 0.21050100029 0.5 1.2891700268 0.025188799948 0.31899100542
          1.142539978 0.300906986 0.29215401411 1.1710499525 0.11986300349 0.5
          1.1301300526 0.30475699902 0.5 1.2936199903 0.35917899013 0.5
          -0.14947299659 -0.5 -0.13736000657 -0.22633899748 -0.5 0.0026503999252
          -0.18628300726 -0.26750600338 -0.029726099223 -0.035155199468 -0.5 0.074470199645
          -4.3864398003 0.25989100337 -0.089046299458 -4.6261501312 0.17262099683 -0.1935839951
          -4.5986399651 0.089573398232 -0.0050773997791 -4.4012899399 0.03873860091 -0.27101901174
          -4.3864398003 0.25989100337 -0.089046299458 -4.5986399651 0.089573398232 -0.0050773997791
          -4.411260128 -0.00020594299713 -0.0010824199999 -4.4012899399 0.03873860091 -0.27101901174
          2.4968700409 -0.3149009943 0.5 2.4503700733 -0.5 0.32925000787
          2.6250600815 -0.5 0.26846000552 2.4458899498 -0.25059598684 0.23923400044
          0.92648899555 -0.5 0.31108599901 0.84539800882 -0.5 0.45313599706
          0.77794498205 -0.5 0.24261300266 0.7291790247 -0.29900100827 0.29153800011
          -3.2776799202 0.5 0.32763698697 -3.3868999481 0.28687500954 0.25560098886
          -3.3576700687 0.44374600053 0.5 -3.2058999538 0.30942299962 0.5
          -4.5986399651 0.089573398232 -0.0050773997791 -4.7836899757 -0.0049985698424 -0.0062314402312
          -4.6675601006 -0.16073800623 -0.17753699422 -4.7847399712 0.018612299114 -0.27819800377
          0.89871001244 -0.21273000538 0.19672900438 0.92648899555 -0.5 0.31108599901
          0.77794498205 -0.5 0.24261300266 0.7291790247 -0.29900100827 0.29153800011
          -4.4165802002 0.22745400667 0.23878499866 -4.411260128 -0.00020594299713 -0.0010824199999
          -4.5986399651 0.089573398232 -0.0050773997791 -4.5181999207 0.028785899282 0.28230598569
          -4.4165802002 0.22745400667 0.23878499866 -4.5986399651 0.089573398232 -0.0050773997791
          -4.6812400818 0.14698000252 0.1767770052 -4.5181999207 0.028785899282 0.28230598569
          -4.5181999207 0.028785899282 0.28230598569 -4.6812400818 0.14698000252 0.1767770052
          -4.6742100716 -0.19076700509 0.15933300555 -4.5986399651 0.089573398232 -0.0050773997791
          1.2525800467 -0.23895399272 0.5 1.2566000223 -0.4687319994 0.5
          1.0404800177 -0.5 0.42839100957 0.95045101643 -0.36442101002 0.5
          1.2525800467 -0.23895399272 0.5 1.0404800177 -0.5 0.42839100957
          1.1263699532 -0.31314399838 0.27022001147 0.95045101643 -0.36442101002 0.5
          1.1000699997 -0.5 0.25644800067 1.0404800177 -0.5 0.42839100957
          0.92648899555 -0.5 0.31108599901 1.1263699532 -0.31314399838 0.27022001147
          -2.8699100018 0.034952599555 0.013808799908 -3.0034298897 -0.12146800011 0.11256500334
          -3.0067799091 -0.070524998009 -0.1112980023 -3.119879961 0.056279499084 0.0078261103481
          -3.5640099049 0.29994499683 -0.013255200349 -3.2857298851 0.5 -0.18894700706
          -3.3652899265 0.29221200943 0.018539199606 -3.5453898907 0.5 0.00052557198796
          -2.9755399227 0.12714900076 -0.1661580056 -2.8699100018 0.034952599555 0.013808799908
          -3.0067799091 -0.070524998009 -0.1112980023 -3.119879961 0.056279499084 0.0078261103481
          -2.9412100315 -0.31262499094 -0.011466300115 -2.8483600616 -0.1823129952 -0.18523199856
          -3.0067799091 -0.070524998009 -0.1112980023 -3.0114998817 -0.30267500877 -0.29305499792
          4.3918099403 0.5 0.31080400944 4.1333699226 0.29578199983 0.28484800458
          4.3127498627 0.19265699387 0.16710400581 4.2770299911 0.5 0.17181399465
          4.3918099403 0.5 0.31080400944 4.4985699654 0.29182401299 0.2750479877
          4.2770299911 0.5 0.17181399465 4.3127498627 0.19265699387 0.16710400581
          4.3918099403 0.5 0.31080400944 4.4985699654 0.29182401299 0.2750479877
          4.5328998566 0.5 0.15708899498 4.2770299911 0.5 0.17181399465
          4.2770299911 0.5 0.17181399465 4.4985699654 0.29182401299 0.2750479877
          4.5328998566 0.5 0.15708899498 4.373770237 0.29578301311 -0.0035506200511
          4.4144301414 0.5 -0.014668799937 4.2770299911 0.5 0.17181399465
          4.5328998566 0.5 0.15708899498 4.373770237 0.29578301311 -0.0035506200511
          4.4144301414 0.5 -0.014668799937 4.2770299911 0.5 0.17181399465
          4.373770237 0.29578301311 -0.0035506200511 4.213329792 0.5 0.0031955000013
          4.373770237 0.29578301311 -0.0035506200511 4.213329792 0.5 0.0031955000013
          4.2770299911 0.5 0.17181399465 4.0785198212 0.2688550055 0.022481000051
          4.373770237 0.29578301311 -0.0035506200511 4.2770299911 0.5 0.17181399465
          4.3127498627 0.19265699387 0.16710400581 4.0785198212 0.2688550055 0.022481000051
          4.2770299911 0.5 0.17181399465 4.4985699654 0.29182401299 0.2750479877
          4.373770237 0.29578301311 -0.0035506200511 4.3127498627 0.19265699387 0.16710400581
          4.2770299911 0.5 0.17181399465 4.3127498627 0.19265699387 0.16710400581
          4.0785198212 0.2688550055 0.022481000051 4.1333699226 0.29578199983 0.28484800458
          4.2770299911 0.5 0.17181399465 4.1333699226 0.29578199983 0.28484800458
          4.0785198212 0.2688550055 0.022481000051 4.0968198776 0.5 0.16808399558
          4.213329792 0.5 0.0031955000013 4.2770299911 0.5 0.17181399465
          4.0785198212 0.2688550055 0.022481000051 4.0968198776 0.5 0.16808399558
          1.6638499498 0.32388100028 -0.30573499203 1.6601899862 0.29914501309 -0.0094896201044
          1.8845000267 0.5 -0.10376700014 1.7617299557 0.19749200344 -0.18400299549
          1.6638499498 0.32388100028 -0.30573499203 1.6601899862 0.29914501309 -0.0094896201044
          1.7617299557 0.19749200344 -0.18400299549 1.4860899448 0.23913800716 -0.2658199966
          1.5281399488 0.5 -0.39227798581 1.4860899448 0.23913800716 -0.2658199966
          1.6638499498 0.32388100028 -0.30573499203 1.6173299551 0.34555700421 -0.5
          1.51098001 0.18941000104 -0.5 1.4860899448 0.23913800716 -0.2658199966
          1.6638499498 0.32388100028 -0.30573499203 1.6999000311 0.18993200362 -0.5
          1.6638499498 0.32388100028 -0.30573499203 1.7617299557 0.19749200344 -0.18400299549
          1.6074999571 0.030789300799 -0.26509699225 1.4860899448 0.23913800716 -0.2658199966
          -4.2314600945 0.092286400497 0.01309709996 -4.2407898903 -0.014909300022 0.29183000326
          -4.1479997635 0.1524810046 0.18773500621 -4.1423802376 -0.18350799382 0.11192400008
          -4.2314600945 0.092286400497 0.01309709996 -4.411260128 -0.00020594299713 -0.0010824199999
          -4.4165802002 0.22745400667 0.23878499866 -4.2407898903 -0.014909300022 0.29183000326
          -4.411260128 -0.00020594299713 -0.0010824199999 -4.2407898903 -0.014909300022 0.29183000326
          -4.2314600945 0.092286400497 0.01309709996 -4.1423802376 -0.18350799382 0.11192400008
          -2.9412100315 -0.31262499094 -0.011466300115 -3.0067799091 -0.070524998009 -0.1112980023
          -3.1692500114 -0.17956000566 -0.18042400479 -3.0114998817 -0.30267500877 -0.29305499792
          3.7685399055 -0.11422099918 -0.34736299515 3.9046399593 0.029231099412 -0.28819599748
          3.8543400764 -0.043197199702 -0.061682298779 3.7566299438 0.15342700481 -0.14512400329
          3.7685399055 -0.11422099918 -0.34736299515 3.7148199081 0.013914800249 -0.5
          3.9156999588 -0.083973996341 -0.5 3.9046399593 0.029231099412 -0.28819599748
          3.7514400482 -0.26456600428 -0.5 3.7148199081 0.013914800249 -0.5
          3.9156999588 -0.083973996341 -0.5 3.7685399055 -0.11422099918 -0.34736299515
          3.7685399055 -0.11422099918 -0.34736299515 3.7514400482 -0.26456600428 -0.5
          3.92689991 -0.25916099548 -0.5 3.9156999588 -0.083973996341 -0.5
          -1.0172100067 0.25485399365 -0.020222399384 -1.1828099489 0.5 -0.19919799268
          -1.0104800463 0.5 -0.2601659894 -1.0912200212 0.5 0.03137230128
          -1.0172100067 0.25485399365 -0.020222399384 -1.0104800463 0.5 -0.2601659894
          -0.89532899857 0.5 -0.11820399761 -1.0912200212 0.5 0.03137230128
          -3.0114998817 -0.30267500877 -0.29305499792 -2.9800601006 -0.5 -0.40619799495
          -3.1629300117 -0.5 -0.34590101242 -2.9510200024 -0.5 -0.15621200204
          -3.0114998817 -0.30267500877 -0.29305499792 -3.1629300117 -0.5 -0.34590101242
          -3.1584899426 -0.5 -0.16631600261 -2.9510200024 -0.5 -0.15621200204
          -2.9800601006 -0.5 -0.40619799495 -3.1973099709 -0.4143140018 -0.5
          -3.0114998817 -0.30267500877 -0.29305499792 -3.1629300117 -0.5 -0.34590101242
          -2.1942100525 -0.27436101437 -0.10729199648 -2.2719900608 -0.32766199112 0.080448098481
          -2.0675001144 -0.32273799181 0.069159403443 -2.0754799843 -0.5 -0.065173096955
          -0.93830001354 0.5 0.10322599858 -0.92035800219 0.31782001257 0.33497199416
          -0.77020597458 0.5 0.12030699849 -0.86464500427 0.18405400217 0.1796399951
          -2.1942100525 -0.27436101437 -0.10729199648 -2.32543993 -0.5 -0.016557699069
          -2.2719900608 -0.32766199112 0.080448098481 -2.0754799843 -0.5 -0.065173096955
          0.98735398054 0.096338197589 0.5 0.96667098999 0.22423000634 0.21116599441
          1.0831899643 -0.026730500162 0.28337299824 1.142539978 0.300906986 0.29215401411
          1.1710499525 0.11986300349 0.5 0.98735398054 0.096338197589 0.5
          1.0831899643 -0.026730500162 0.28337299824 1.142539978 0.300906986 0.29215401411
          1.142539978 0.300906986 0.29215401411 1.1301300526 0.30475699902 0.5
          1.1710499525 0.11986300349 0.5 0.98735398054 0.096338197589 0.5
          1.6999000311 0.18993200362 -0.5 1.8725500107 0.093445502222 -0.32259699702
          1.8703600168 0.23445099592 -0.5 1.785670042 0.036040998995 -0.5
          -0.95835602283 -0.27399000525 0.5 -1.1465300322 -0.23797599971 0.5
          -0.99834597111 -0.5 0.33863401413 -1.1246000528 -0.21291700006 0.24169400334
          1.7617299557 0.19749200344 -0.18400299549 2.0216500759 0.22515000403 -0.27024498582
          1.8703600168 0.23445099592 -0.5 1.8725500107 0.093445502222 -0.32259699702
          2.0588099957 0.16667899489 -0.072469100356 2.0216500759 0.22515000403 -0.27024498582
          1.7617299557 0.19749200344 -0.18400299549 1.8725500107 0.093445502222 -0.32259699702
          2.0588099957 0.16667899489 -0.072469100356 2.0216500759 0.22515000403 -0.27024498582
          1.8725500107 0.093445502222 -0.32259699702 1.9453500509 -0.087545797229 -0.2573390007
          1.9453500509 -0.087545797229 -0.2573390007 2.1815600395 -0.001020470052 -0.32536798716
          2.0216500759 0.22515000403 -0.27024498582 1.8725500107 0.093445502222 -0.32259699702
          1.9453500509 -0.087545797229 -0.2573390007 2.1815600395 -0.001020470052 -0.32536798716
          1.8725500107 0.093445502222 -0.32259699702 2.040199995 0.016450500116 -0.5
          1.8725500107 0.093445502222 -0.32259699702 2.1815600395 -0.001020470052 -0.32536798716
          2.0216500759 0.22515000403 -0.27024498582 2.040199995 0.016450500116 -0.5
          2.0216500759 0.22515000403 -0.27024498582 2.040199995 0.016450500116 -0.5
          1.8703600168 0.23445099592 -0.5 1.8725500107 0.093445502222 -0.32259699702
          1.8725500107 0.093445502222 -0.32259699702 2.040199995 0.016450500116 -0.5
          1.8703600168 0.23445099592 -0.5 1.785670042 0.036040998995 -0.5
          4.8028302193 -0.29806599021 -0.33157899976 5 -0.29155600071 -0.27424201369
          4.9127898216 -0.40444201231 -0.5 5 -0.49873501062 -0.32859501243
          4.8187298775 -0.5 -0.29728299379 4.8028302193 -0.29806599021 -0.33157899976
          4.9127898216 -0.40444201231 -0.5 5 -0.49873501062 -0.32859501243
          4.8187298775 -0.5 -0.29728299379 5 -0.29155600071 -0.27424201369
          4.8028302193 -0.29806599021 -0.33157899976 5 -0.49873501062 -0.32859501243
          4.8187298775 -0.5 -0.29728299379 5 -0.29155600071 -0.27424201369
          4.9067702293 -0.5 -0.13576300442 4.8028302193 -0.29806599021 -0.33157899976
          -4.6633000374 0.5 0.39759600163 -4.5957798958 0.24809199572 0.32881501317
          -4.7492098808 0.3132250011 0.5 -4.5665698051 0.35982298851 0.5
          4.8028302193 -0.29806599021 -0.33157899976 4.814139843 -0.29069000483 0.014058699831
          4.9067702293 -0.5 -0.13576300442 4.6962199211 -0.21809899807 -0.17522199452
          5 -0.29155600071 -0.27424201369 4.814139843 -0.29069000483 0.014058699831
          4.8028302193 -0.29806599021 -0.33157899976 4.6962199211 -0.21809899807 -0.17522199452
          4.6962199211 -0.21809899807 -0.17522199452 5 -0.025442499667 -0.21136300266
          4.8028302193 -0.29806599021 -0.33157899976 5 -0.29155600071 -0.27424201369
          4.6962199211 -0.21809899807 -0.17522199452 5 -0.025442499667 -0.21136300266
          4.7696099281 -0.016697799787 -0.29300200939 4.8028302193 -0.29806599021 -0.33157899976
          4.8028302193 -0.29806599021 -0.33157899976 5 -0.025442499667 -0.21136300266
          4.7696099281 -0.016697799787 -0.29300200939 5 -0.29155600071 -0.27424201369
          5 -0.29155600071 -0.27424201369 4.814139843 -0.29069000483 0.014058699831
          4.9067702293 -0.5 -0.13576300442 4.8028302193 -0.29806599021 -0.33157899976
          3.424779892 -0.5 0.16588500142 3.4722599983 -0.22174499929 0.20733100176
          3.5110299587 -0.5 0.32628598809 3.2869899273 -0.28170898557 0.32561299205
          3.424779892 -0.5 0.16588500142 3.2869899273 -0.28170898557 0.32561299205
          3.5110299587 -0.5 0.32628598809 3.3018300533 -0.5 0.38916900754
          3.3018300533 -0.5 0.38916900754 3.1172299385 -0.5 0.090180002153
          3.424779892 -0.5 0.16588500142 3.2869899273 -0.28170898557 0.32561299205
          4.8058700562 0.17079499364 -0.0053127701394 5 0.29265201092 0.032442100346
          4.8203802109 0.5 -0.047230999917 5 0.32882899046 -0.12744599581
          4.8203802109 0.5 -0.047230999917 5 0.29265201092 0.032442100346
          4.9951200485 0.5 -0.11868099868 5 0.32882899046 -0.12744599581
          -0.014323200099 -0.10396199673 0.093425601721 -0.014450499788 -0.12391400337 -0.11072800308
          0.12687399983 0.024941600859 0.019101899117 -0.169242993 0.019168399274 -0.0072063799016
          -0.014323200099 -0.10396199673 0.093425601721 -0.169242993 0.019168399274 -0.0072063799016
          0.12687399983 0.024941600859 0.019101899117 -0.042902801186 0.13622699678 0.15243600309
          -0.014323200099 -0.10396199673 0.093425601721 0.12687399983 0.024941600859 0.019101899117
          0.028599999845 -0.025005400181 0.30730199814 -0.042902801186 0.13622699678 0.15243600309
          -0.014323200099 -0.10396199673 0.093425601721 0.028599999845 -0.025005400181 0.30730199814
          -0.16119599342 0.084271103144 0.32078498602 -0.042902801186 0.13622699678 0.15243600309
          -0.17885400355 -0.17817400396 0.19088800251 -0.014323200099 -0.10396199673 0.093425601721
          -0.16119599342 0.084271103144 0.32078498602 -0.042902801186 0.13622699678 0.15243600309
          -0.17885400355 -0.17817400396 0.19088800251 -0.169242993 0.019168399274 -0.0072063799016
          -0.014323200099 -0.10396199673 0.093425601721 -0.042902801186 0.13622699678 0.15243600309
          -0.17885400355 -0.17817400396 0.19088800251 0.028599999845 -0.025005400181 0.30730199814
          -0.16119599342 0.084271103144 0.32078498602 -0.014323200099 -0.10396199673 0.093425601721
          0.96667098999 0.22423000634 0.21116599441 1.0667099953 0.30986699462 -0.00099666800816
          0.80673497915 0.05526150018 -0.040332399309 0.87731397152 0.049460299313 0.15210199356
          0.96667098999 0.22423000634 0.21116599441 1.0667099953 0.30986699462 -0.00099666800816
          0.87731397152 0.049460299313 0.15210199356 1.0260499716 0.011771400459 0.016185000539
          0.87731397152 0.049460299313 0.15210199356 1.0667099953 0.30986699462 -0.00099666800816
          0.80673497915 0.05526150018 -0.040332399309 1.0260499716 0.011771400459 0.016185000539
          -3.5796399117 -0.036828301847 0.30965799093 -3.776599884 -0.0024208100513 0.27819898725
          -3.6482999325 -0.031938001513 0.5 -3.7068300247 -0.31349000335 0.29142400622
          -3.6202099323 -0.16945900023 0.16224400699 -3.776599884 -0.0024208100513 0.27819898725
          -3.5796399117 -0.036828301847 0.30965799093 -3.7068300247 -0.31349000335 0.29142400622
          -4.1503901482 0.15257999301 -0.18268600106 -4.0041999817 0.10439799726 -0.5
          -4.0346798897 -0.02448659949 -0.29127898812 -4.0830402374 0.30948498845 -0.29728299379
          -4.1503901482 0.15257999301 -0.18268600106 -4.0830402374 0.30948498845 -0.29728299379
          -4.0346798897 -0.02448659949 -0.29127898812 -3.8989500999 0.24744200706 -0.23554000258
          -1.0172100067 0.25485399365 -0.020222399384 -0.86464500427 0.18405400217 0.1796399951
          -0.93830001354 0.5 0.10322599858 -0.68823200464 0.30021798611 0.030239600688
          -0.93830001354 0.5 0.10322599858 -1.0172100067 0.25485399365 -0.020222399384
          -0.92035800219 0.31782001257 0.33497199416 -0.86464500427 0.18405400217 0.1796399951
          -0.89532899857 0.5 -0.11820399761 -1.0172100067 0.25485399365 -0.020222399384
          -0.93830001354 0.5 0.10322599858 -0.68823200464 0.30021798611 0.030239600688
          -0.93830001354 0.5 0.10322599858 -0.86464500427 0.18405400217 0.1796399951
          -0.77020597458 0.5 0.12030699849 -0.68823200464 0.30021798611 0.030239600688
          -0.89532899857 0.5 -0.11820399761 -0.93830001354 0.5 0.10322599858
          -0.77020597458 0.5 0.12030699849 -0.68823200464 0.30021798611 0.030239600688
          -0.89532899857 0.5 -0.11820399761 -1.0912200212 0.5 0.03137230128
          -0.93830001354 0.5 0.10322599858 -1.0172100067 0.25485399365 -0.020222399384
          -2.187210083 -0.061865199357 0.039609499276 -2.2719900608 -0.32766199112 0.080448098481
          -2.4500799179 -0.18146699667 0.1914049983 -2.1809399128 -0.24249899387 0.24300700426
          -2.1809399128 -0.24249899387 0.24300700426 -2.2719900608 -0.32766199112 0.080448098481
          -2.4500799179 -0.18146699667 0.1914049983 -2.3618400097 -0.32881900668 0.3184300065
          -2.2719900608 -0.32766199112 0.080448098481 -2.4605801105 -0.31329700351 0.0017525800504
          -2.4500799179 -0.18146699667 0.1914049983 -2.3618400097 -0.32881900668 0.3184300065
          -2.187210083 -0.061865199357 0.039609499276 -2.1942100525 -0.27436101437 -0.10729199648
          -2.4208400249 -0.17098300159 -0.17608100176 -2.2719900608 -0.32766199112 0.080448098481
          -2.2719900608 -0.32766199112 0.080448098481 -2.32543993 -0.5 -0.016557699069
          -2.268130064 -0.5 0.23155200481 -2.0754799843 -0.5 -0.065173096955
          -2.0675001144 -0.32273799181 0.069159403443 -2.2719900608 -0.32766199112 0.080448098481
          -2.268130064 -0.5 0.23155200481 -2.0754799843 -0.5 -0.065173096955
          -2.2719900608 -0.32766199112 0.080448098481 -2.32543993 -0.5 -0.016557699069
          -2.4806699753 -0.5 0.25502499938 -2.268130064 -0.5 0.23155200481
          1.035220027 0.14891000092 -0.29856100678 1.1232800484 0.5 -0.40171200037
          1.0355600119 0.3612369895 -0.5 1.2041200399 0.21308499575 -0.18568199873
          1.035220027 0.14891000092 -0.29856100678 1.0351999998 0.5 -0.23184999824
          1.1232800484 0.5 -0.40171200037 1.2041200399 0.21308499575 -0.18568199873
          0.25332000852 -0.5 0.31911799312 0.15296399593 -0.18104599416 0.18370200694
          -0.012120299973 -0.32062399387 0.28174200654 0.23762199283 -0.5 0.14814600348
          -0.012120299973 -0.32062399387 0.28174200654 0.21745100617 -0.25824698806 0.5
          0.15296399593 -0.18104599416 0.18370200694 0.25332000852 -0.5 0.31911799312
          0.25332000852 -0.5 0.31911799312 0.37961798906 -0.27483201027 0.3045360148
          0.40799000859 -0.5 0.24458500743 0.44613900781 -0.5 0.42994099855
          1.5854899883 0.5 -0.19192999601 1.6601899862 0.29914501309 -0.0094896201044
          1.6638499498 0.32388100028 -0.30573499203 1.4860899448 0.23913800716 -0.2658199966
          3.3437099457 0.5 0.098416596651 3.3688399792 0.28460401297 0.022468499839
          3.353579998 0.25871399045 0.31244799495 3.541369915 0.5 0.1197900027
          1.4673299789 -0.16130299866 -0.30513200164 1.5757000446 -0.34572100639 -0.5
          1.673140049 -0.32074698806 -0.32187500596 1.5757000446 -0.01348510012 -0.5
          1.6074999571 0.030789300799 -0.26509699225 1.4673299789 -0.16130299866 -0.30513200164
          1.673140049 -0.32074698806 -0.32187500596 1.5757000446 -0.01348510012 -0.5
          1.6074999571 0.030789300799 -0.26509699225 1.673140049 -0.32074698806 -0.32187500596
          1.7917699814 -0.17960299551 -0.5 1.5757000446 -0.01348510012 -0.5
          1.673140049 -0.32074698806 -0.32187500596 1.5757000446 -0.34572100639 -0.5
          1.7917699814 -0.17960299551 -0.5 1.5757000446 -0.01348510012 -0.5
          1.673140049 -0.32074698806 -0.32187500596 1.5757000446 -0.34572100639 -0.5
          1.8518699408 -0.5 -0.39846301079 1.7917699814 -0.17960299551 -0.5
          1.8699899912 -0.30787700415 -0.26772201061 1.673140049 -0.32074698806 -0.32187500596
          1.8518699408 -0.5 -0.39846301079 1.7917699814 -0.17960299551 -0.5
          1.673140049 -0.32074698806 -0.32187500596 1.6971999407 -0.18535399437 -0.17042499781
          1.8699899912 -0.30787700415 -0.26772201061 1.8100399971 -0.5 -0.073667302728
          -3.7646200657 -0.015583699569 -0.5 -3.7030899525 -0.27636900544 -0.5
          -3.8436501026 -0.17188200355 -0.5 -3.7279200554 -0.31415998936 -0.27874299884
          0.38934001327 0.21350599825 -0.5 0.49744200706 0.32136800885 -0.31016400456
          0.57893800735 0.29019400477 -0.5 0.50762802362 0.094153903425 -0.5
          0.38934001327 0.21350599825 -0.5 0.49744200706 0.32136800885 -0.31016400456
          0.50762802362 0.094153903425 -0.5 0.3679780066 0.042948998511 -0.26218301058
          0.38934001327 0.21350599825 -0.5 0.3679780066 0.042948998511 -0.26218301058
          0.50762802362 0.094153903425 -0.5 0.39225000143 -0.090401999652 -0.5
          -3.8436501026 -0.17188200355 -0.5 -3.7030899525 -0.27636900544 -0.5
          -3.889359951 -0.35665598512 -0.5 -3.7279200554 -0.31415998936 -0.27874299884
          -3.8436501026 -0.17188200355 -0.5 -3.7279200554 -0.31415998936 -0.27874299884
          -3.889359951 -0.35665598512 -0.5 -3.9185600281 -0.21505500376 -0.20922599733
          -2.0053899288 -0.31090599298 0.32138600945 -1.9607599974 -0.22289100289 0.5
          -1.8273899555 -0.5 0.4705440104 -1.9660600424 -0.5 0.38725298643
          -1.7268799543 -0.26261898875 0.29539200664 -2.0053899288 -0.31090599298 0.32138600945
          -1.8273899555 -0.5 0.4705440104 -1.9660600424 -0.5 0.38725298643
          -2.0053899288 -0.31090599298 0.32138600945 -1.7268799543 -0.26261898875 0.29539200664
          -1.7145800591 -0.5 0.30908799171 -1.9660600424 -0.5 0.38725298643
          -1.8138200045 -0.5 0.13895599544 -2.0053899288 -0.31090599298 0.32138600945
          -1.7145800591 -0.5 0.30908799171 -1.9660600424 -0.5 0.38725298643
          -1.8138200045 -0.5 0.13895599544 -2.0053899288 -0.31090599298 0.32138600945
          -1.9660600424 -0.5 0.38725298643 -2.03008008 -0.5 0.23870000243
          -1.8138200045 -0.5 0.13895599544 -1.9215400219 -0.19377499819 0.17684599757
          -2.0053899288 -0.31090599298 0.32138600945 -2.03008008 -0.5 0.23870000243
          -1.8138200045 -0.5 0.13895599544 -1.9215400219 -0.19377499819 0.17684599757
          -1.7268799543 -0.26261898875 0.29539200664 -2.0053899288 -0.31090599298 0.32138600945
          -1.8138200045 -0.5 0.13895599544 -1.7268799543 -0.26261898875 0.29539200664
          -1.7145800591 -0.5 0.30908799171 -2.0053899288 -0.31090599298 0.32138600945
          -1.9215400219 -0.19377499819 0.17684599757 -1.9607599974 -0.22289100289 0.5
          -1.7268799543 -0.26261898875 0.29539200664 -2.0053899288 -0.31090599298 0.32138600945
          -1.7268799543 -0.26261898875 0.29539200664 -1.9607599974 -0.22289100289 0.5
          -1.8273899555 -0.5 0.4705440104 -2.0053899288 -0.31090599298 0.32138600945
          -1.9660600424 -0.5 0.38725298643 -2.0053899288 -0.31090599298 0.32138600945
          -2.1087300777 -0.5 0.46349099278 -2.03008008 -0.5 0.23870000243
          -2.03008008 -0.5 0.23870000243 -2.0053899288 -0.31090599298 0.32138600945
          -2.1087300777 -0.5 0.46349099278 -2.268130064 -0.5 0.23155200481
          -2.03008008 -0.5 0.23870000243 -2.1809399128 -0.24249899387 0.24300700426
          -2.0053899288 -0.31090599298 0.32138600945 -2.268130064 -0.5 0.23155200481
          -2.0053899288 -0.31090599298 0.32138600945 -2.1809399128 -0.24249899387 0.24300700426
          -2.03008008 -0.5 0.23870000243 -2.0675001144 -0.32273799181 0.069159403443
          -2.0053899288 -0.31090599298 0.32138600945 -2.1809399128 -0.24249899387 0.24300700426
          -2.1087300777 -0.5 0.46349099278 -2.268130064 -0.5 0.23155200481
          -2.0053899288 -0.31090599298 0.32138600945 -2.2661499977 -0.26958799362 0.5
          -2.1087300777 -0.5 0.46349099278 -2.1809399128 -0.24249899387 0.24300700426
          -2.0053899288 -0.31090599298 0.32138600945 -2.2661499977 -0.26958799362 0.5
          -2.1809399128 -0.24249899387 0.24300700426 -2.1403698921 -0.070216402411 0.5
          -2.0053899288 -0.31090599298 0.32138600945 -2.1809399128 -0.24249899387 0.24300700426
          -1.9649800062 -0.0049698902294 0.29592001438 -2.1403698921 -0.070216402411 0.5
          -2.6483700275 0.13034400344 -0.5 -2.6364200115 -0.0513737984 -0.25086298585
          -2.7017800808 -0.045854199678 -0.5 -2.8274400234 0.051215600222 -0.3225030005
          -2.8274400234 0.051215600222 -0.3225030005 -2.8458900452 0.23675900698 -0.5
          -2.7017800808 -0.045854199678 -0.5 -2.6483700275 0.13034400344 -0.5
          0.75085902214 -0.045475300401 0.28253901005 0.46630200744 0.046083901078 0.25881299376
          0.69335997105 0.13933600485 0.14205299318 0.81075197458 0.14764200151 0.31798198819
          0.69335997105 0.13933600485 0.14205299318 0.87731397152 0.049460299313 0.15210199356
          0.75085902214 -0.045475300401 0.28253901005 0.81075197458 0.14764200151 0.31798198819
          0.69335997105 0.13933600485 0.14205299318 0.96667098999 0.22423000634 0.21116599441
          0.87731397152 0.049460299313 0.15210199356 0.81075197458 0.14764200151 0.31798198819
          0.69335997105 0.13933600485 0.14205299318 0.96667098999 0.22423000634 0.21116599441
          0.81075197458 0.14764200151 0.31798198819 0.69564402103 0.31359699368 0.28978401423
          0.69564402103 0.31359699368 0.28978401423 0.46630200744 0.046083901078 0.25881299376
          0.81075197458 0.14764200151 0.31798198819 0.69335997105 0.13933600485 0.14205299318
          0.69564402103 0.31359699368 0.28978401423 0.46630200744 0.046083901078 0.25881299376
          0.5860620141 0.083102703094 0.5 0.81075197458 0.14764200151 0.31798198819
          0.7305060029 0.19254399836 0.5 0.69564402103 0.31359699368 0.28978401423
          0.5860620141 0.083102703094 0.5 0.81075197458 0.14764200151 0.31798198819
          0.7305060029 0.19254399836 0.5 0.813831985 0.031614098698 0.5
          0.81075197458 0.14764200151 0.31798198819 0.5860620141 0.083102703094 0.5
          0.81075197458 0.14764200151 0.31798198819 0.7305060029 0.19254399836 0.5
          0.69564402103 0.31359699368 0.28978401423 0.76468199492 0.37051400542 0.5
          0.87731397152 0.049460299313 0.15210199356 0.96667098999 0.22423000634 0.21116599441
          1.0831899643 -0.026730500162 0.28337299824 0.81075197458 0.14764200151 0.31798198819
          0.75085902214 -0.045475300401 0.28253901005 0.87731397152 0.049460299313 0.15210199356
          1.0831899643 -0.026730500162 0.28337299824 0.81075197458 0.14764200151 0.31798198819
          -4.0041999817 0.10439799726 -0.5 -4.0830402374 0.30948498845 -0.29728299379
          -4.1503901482 0.15257999301 -0.18268600106 -4.1763601303 0.12014900148 -0.5
          -4.0041999817 0.10439799726 -0.5 -4.0616898537 0.31015700102 -0.5
          -4.0830402374 0.30948498845 -0.29728299379 -4.1763601303 0.12014900148 -0.5
          -4.1763601303 0.12014900148 -0.5 -4.0616898537 0.31015700102 -0.5
          -4.0830402374 0.30948498845 -0.29728299379 -4.2864198685 0.30046600103 -0.30744600296
          -4.1763601303 0.12014900148 -0.5 -4.0830402374 0.30948498845 -0.29728299379
          -4.1503901482 0.15257999301 -0.18268600106 -4.2864198685 0.30046600103 -0.30744600296
          -4.0830402374 0.30948498845 -0.29728299379 -4.2864198685 0.30046600103 -0.30744600296
          -4.2024998665 0.29241999984 0.027058599517 -4.1503901482 0.15257999301 -0.18268600106
          -4.0830402374 0.30948498845 -0.29728299379 -4.2024998665 0.29241999984 0.027058599517
          -3.9890100956 0.24387900531 0.0062287501059 -4.1503901482 0.15257999301 -0.18268600106
          -4.0830402374 0.30948498845 -0.29728299379 -4.0041999817 0.10439799726 -0.5
          -4.0346798897 -0.02448659949 -0.29127898812 -3.8989500999 0.24744200706 -0.23554000258
          -3.8989500999 0.24744200706 -0.23554000258 -4.1164798737 0.5 -0.23297099769
          -4.0201997757 0.5 0.0039351000451 -4.0830402374 0.30948498845 -0.29728299379
          -4.0648899078 0.5 -0.42759600282 -4.0616898537 0.31015700102 -0.5
          -4.0830402374 0.30948498845 -0.29728299379 -3.8885200024 0.43526899815 -0.5
          -4.0830402374 0.30948498845 -0.29728299379 -4.0648899078 0.5 -0.42759600282
          -3.8885200024 0.43526899815 -0.5 -3.7526800632 0.5 -0.34413599968
          -4.0830402374 0.30948498845 -0.29728299379 -4.0648899078 0.5 -0.42759600282
          -3.7526800632 0.5 -0.34413599968 -3.822799921 0.5 -0.16184200346
          -3.40102005 0.049610700458 0.26974400878 -3.4394900799 0.2320100069 0.5
          -3.595760107 0.14106500149 0.5 -3.6287798882 0.30937200785 0.33959800005
          -3.40102005 0.049610700458 0.26974400878 -3.595760107 0.14106500149 0.5
          -3.6195299625 0.18837699294 0.1758890003 -3.6287798882 0.30937200785 0.33959800005
          -3.40102005 0.049610700458 0.26974400878 -3.6287798882 0.30937200785 0.33959800005
          -3.6195299625 0.18837699294 0.1758890003 -3.3868999481 0.28687500954 0.25560098886
          -3.40102005 0.049610700458 0.26974400878 -3.4394900799 0.2320100069 0.5
          -3.6287798882 0.30937200785 0.33959800005 -3.3868999481 0.28687500954 0.25560098886
          -3.6287798882 0.30937200785 0.33959800005 -3.475399971 0.5 0.31425100565
          -3.5643999577 0.41731798649 0.5 -3.697149992 0.5 0.36223399639
          -3.6287798882 0.30937200785 0.33959800005 -3.475399971 0.5 0.31425100565
          -3.697149992 0.5 0.36223399639 -3.6247899532 0.5 0.17990300059
          -3.697149992 0.5 0.36223399639 -3.6287798882 0.30937200785 0.33959800005
          -3.6247899532 0.5 0.17990300059 -3.8539500237 0.5 0.19824199378
          -3.697149992 0.5 0.36223399639 -3.8861699104 0.22745600343 0.24729199708
          -3.6287798882 0.30937200785 0.33959800005 -3.8539500237 0.5 0.19824199378
          -3.697149992 0.5 0.36223399639 -3.7529900074 0.32859098911 0.5
          -3.6287798882 0.30937200785 0.33959800005 -3.8861699104 0.22745600343 0.24729199708
          -3.6287798882 0.30937200785 0.33959800005 -3.8861699104 0.22745600343 0.24729199708
          -3.7529900074 0.32859098911 0.5 -3.7759699821 0.12645199895 0.5
          -3.6287798882 0.30937200785 0.33959800005 -3.7759699821 0.12645199895 0.5
          -3.776599884 -0.0024208100513 0.27819898725 -3.8861699104 0.22745600343 0.24729199708
          -3.6287798882 0.30937200785 0.33959800005 -3.7612600327 0.27116200328 0.015408799984
          -3.8539500237 0.5 0.19824199378 -3.8861699104 0.22745600343 0.24729199708
          -3.6247899532 0.5 0.17990300059 -3.7612600327 0.27116200328 0.015408799984
          -3.8539500237 0.5 0.19824199378 -3.6287798882 0.30937200785 0.33959800005
          -2.6087799072 -0.18399499357 -0.098889403045 -2.6132099628 -0.29757499695 -0.26779401302
          -2.4605801105 -0.31329700351 0.0017525800504 -2.4208400249 -0.17098300159 -0.17608100176
          -2.6087799072 -0.18399499357 -0.098889403045 -2.7003099918 -0.5 -0.15431599319
          -2.4605801105 -0.31329700351 0.0017525800504 -2.6132099628 -0.29757499695 -0.26779401302
          -4.1503901482 0.15257999301 -0.18268600106 -4.3864398003 0.25989100337 -0.089046299458
          -4.2024998665 0.29241999984 0.027058599517 -4.2314600945 0.092286400497 0.01309709996
          -4.2221798897 -0.17677399516 -0.20671699941 -4.2314600945 0.092286400497 0.01309709996
          -4.411260128 -0.00020594299713 -0.0010824199999 -4.4012899399 0.03873860091 -0.27101901174
          3.8962900639 0.45250400901 -0.5 4.0157899857 0.23598599434 -0.23627699912
          4.091340065 0.41007000208 -0.5 3.9944400787 0.12515999377 -0.5
          3.7777900696 0.29186201096 -0.5 4.0157899857 0.23598599434 -0.23627699912
          3.8962900639 0.45250400901 -0.5 3.9944400787 0.12515999377 -0.5
          3.7777900696 0.29186201096 -0.5 3.8109300137 0.5 -0.32591500878
          3.8962900639 0.45250400901 -0.5 4.0157899857 0.23598599434 -0.23627699912
          3.5376200676 0.42240199447 -0.5 3.8109300137 0.5 -0.32591500878
          3.8962900639 0.45250400901 -0.5 3.7777900696 0.29186201096 -0.5
          -4.3864398003 0.25989100337 -0.089046299458 -4.4165802002 0.22745400667 0.23878499866
          -4.2024998665 0.29241999984 0.027058599517 -4.2314600945 0.092286400497 0.01309709996
          -4.3864398003 0.25989100337 -0.089046299458 -4.4165802002 0.22745400667 0.23878499866
          -4.2314600945 0.092286400497 0.01309709996 -4.411260128 -0.00020594299713 -0.0010824199999
          -4.2314600945 0.092286400497 0.01309709996 -4.3864398003 0.25989100337 -0.089046299458
          -4.411260128 -0.00020594299713 -0.0010824199999 -4.4012899399 0.03873860091 -0.27101901174
          -0.92764699459 0.27740699053 -0.26456698775 -0.94353401661 0.5 -0.43025898933
          -0.80325001478 0.5 -0.29217898846 -1.0104800463 0.5 -0.2601659894
          -0.92764699459 0.27740699053 -0.26456698775 -0.80325001478 0.5 -0.29217898846
          -0.89532899857 0.5 -0.11820399761 -1.0104800463 0.5 -0.2601659894
          -3.7279200554 -0.31415998936 -0.27874299884 -3.8106400967 -0.5 -0.18066500127
          -3.7506599426 -0.28654700518 -0.026961300522 -3.5715000629 -0.33374500275 -0.11063300073
          -3.6039199829 -0.1486119926 -0.1880979985 -3.7279200554 -0.31415998936 -0.27874299884
          -3.7506599426 -0.28654700518 -0.026961300522 -3.5715000629 -0.33374500275 -0.11063300073
          -3.7506599426 -0.28654700518 -0.026961300522 -3.6202099323 -0.16945900023 0.16224400699
          -3.6039199829 -0.1486119926 -0.1880979985 -3.5715000629 -0.33374500275 -0.11063300073
          -3.7279200554 -0.31415998936 -0.27874299884 -3.8106400967 -0.5 -0.18066500127
          -3.5715000629 -0.33374500275 -0.11063300073 -3.6053900719 -0.5 -0.22260099649
          -3.5715000629 -0.33374500275 -0.11063300073 -3.8106400967 -0.5 -0.18066500127
          -3.5598199368 -0.5 0.038439199328 -3.6053900719 -0.5 -0.22260099649
          -3.5715000629 -0.33374500275 -0.11063300073 -3.6053900719 -0.5 -0.22260099649
          -3.5598199368 -0.5 0.038439199328 -3.3001599312 -0.5 -0.014418800361
          -3.5715000629 -0.33374500275 -0.11063300073 -3.6053900719 -0.5 -0.22260099649
          -3.3001599312 -0.5 -0.014418800361 -3.3308799267 -0.5 -0.28216999769
          1.391010046 -0.5 -0.2258079946 1.3746500015 -0.33837598562 -0.5
          1.5000799894 -0.33221799135 -0.20392900705 1.3097499609 -0.32079198956 -0.30054301023
          -3.5694301128 0.5 -0.27657601237 -3.4697299004 0.28407201171 -0.298379004
          -3.6415400505 0.18903900683 -0.16241000593 -3.6554999352 0.5 -0.12951600552
          2.2014501095 -0.17346900702 -0.18166600168 2.2021598816 0.01178739965 -0.018270699307
          2.2314100266 -0.30056801438 0.0065283500589 2.0873699188 -0.15330499411 0.011435699649
          2.2021598816 0.01178739965 -0.018270699307 2.1778399944 -0.17710599303 0.19188399613
          2.2314100266 -0.30056801438 0.0065283500589 2.0873699188 -0.15330499411 0.011435699649
          2.2314100266 -0.30056801438 0.0065283500589 2.1778399944 -0.17710599303 0.19188399613
          1.9245300293 -0.27816799283 0.073713801801 2.0873699188 -0.15330499411 0.011435699649
          4.2942700386 0.099316298962 -0.5 4.2944598198 0.20695400238 -0.17472800612
          4.3479599953 -0.069560296834 -0.31158301234 4.1566100121 -0.01251959987 -0.28246301413
          4.3479599953 -0.069560296834 -0.31158301234 4.2944598198 0.20695400238 -0.17472800612
          4.317220211 0.013630899601 -0.032561101019 4.1566100121 -0.01251959987 -0.28246301413
          2.0873699188 -0.15330499411 0.011435699649 1.9567300081 0.0023706499487 0.0081458101049
          2.1778399944 -0.17710599303 0.19188399613 1.9551000595 0.040498699993 0.28340399265
          -4.411260128 -0.00020594299713 -0.0010824199999 -4.5685501099 -0.12892700732 -0.0029087499715
          -4.4539299011 -0.1930360049 -0.27674099803 -4.4012899399 0.03873860091 -0.27101901174
          -4.411260128 -0.00020594299713 -0.0010824199999 -4.5893697739 -0.027997599915 -0.31035900116
          -4.5685501099 -0.12892700732 -0.0029087499715 -4.4012899399 0.03873860091 -0.27101901174
          -4.5893697739 -0.027997599915 -0.31035900116 -4.5685501099 -0.12892700732 -0.0029087499715
          -4.5986399651 0.089573398232 -0.0050773997791 -4.411260128 -0.00020594299713 -0.0010824199999
          -4.5893697739 -0.027997599915 -0.31035900116 -4.6675601006 -0.16073800623 -0.17753699422
          -4.5986399651 0.089573398232 -0.0050773997791 -4.5685501099 -0.12892700732 -0.0029087499715
          -4.5685501099 -0.12892700732 -0.0029087499715 -4.6675601006 -0.16073800623 -0.17753699422
          -4.4539299011 -0.1930360049 -0.27674099803 -4.5893697739 -0.027997599915 -0.31035900116
          -4.5685501099 -0.12892700732 -0.0029087499715 -4.5893697739 -0.027997599915 -0.31035900116
          -4.4539299011 -0.1930360049 -0.27674099803 -4.4012899399 0.03873860091 -0.27101901174
          -4.6675601006 -0.16073800623 -0.17753699422 -4.5986399651 0.089573398232 -0.0050773997791
          -4.5685501099 -0.12892700732 -0.0029087499715 -4.7836899757 -0.0049985698424 -0.0062314402312
          -4.7982001305 -0.27365100384 -0.020341299474 -4.7836899757 -0.0049985698424 -0.0062314402312
          -4.6675601006 -0.16073800623 -0.17753699422 -4.5685501099 -0.12892700732 -0.0029087499715
          -4.7982001305 -0.27365100384 -0.020341299474 -4.7836899757 -0.0049985698424 -0.0062314402312
          -4.5685501099 -0.12892700732 -0.0029087499715 -4.6742100716 -0.19076700509 0.15933300555
          -4.5685501099 -0.12892700732 -0.0029087499715 -4.7982001305 -0.27365100384 -0.020341299474
          -4.6742100716 -0.19076700509 0.15933300555 -4.5130600929 -0.32579600811 0.18804700673
          -4.5685501099 -0.12892700732 -0.0029087499715 -4.5986399651 0.089573398232 -0.0050773997791
          -4.6742100716 -0.19076700509 0.15933300555 -4.7836899757 -0.0049985698424 -0.0062314402312
          -4.5181999207 0.028785899282 0.28230598569 -4.5986399651 0.089573398232 -0.0050773997791
          -4.6742100716 -0.19076700509 0.15933300555 -4.5685501099 -0.12892700732 -0.0029087499715
          -4.5181999207 0.028785899282 0.28230598569 -4.5986399651 0.089573398232 -0.0050773997791
          -4.5685501099 -0.12892700732 -0.0029087499715 -4.411260128 -0.00020594299713 -0.0010824199999
          1.1263699532 -0.31314399838 0.27022001147 1.2566000223 -0.4687319994 0.5
          1.2694100142 -0.5 0.16097800434 1.1000699997 -0.5 0.25644800067
          1.1263699532 -0.31314399838 0.27022001147 1.2566000223 -0.4687319994 0.5
          1.1000699997 -0.5 0.25644800067 1.0404800177 -0.5 0.42839100957
          1.2566000223 -0.4687319994 0.5 1.4243400097 -0.5 0.34605500102
          1.2694100142 -0.5 0.16097800434 1.1000699997 -0.5 0.25644800067
          1.1000699997 -0.5 0.25644800067 1.1665500402 -0.30232200027 0.032807700336
          1.0404800177 -0.5 0.084503702819 1.2694100142 -0.5 0.16097800434
          -3.177740097 0.19153399765 0.19352599978 -3.2138299942 0.5 0.12549799681
          -3.0836999416 0.5 0.28708401322 -3.2776799202 0.5 0.32763698697
          -3.177740097 0.19153399765 0.19352599978 -3.2138299942 0.5 0.12549799681
          -3.2776799202 0.5 0.32763698697 -3.3868999481 0.28687500954 0.25560098886
          -3.2138299942 0.5 0.12549799681 -3.475399971 0.5 0.31425100565
          -3.2776799202 0.5 0.32763698697 -3.3868999481 0.28687500954 0.25560098886
          -3.3868999481 0.28687500954 0.25560098886 -3.475399971 0.5 0.31425100565
          -3.2776799202 0.5 0.32763698697 -3.3576700687 0.44374600053 0.5
          -0.18946300447 0.17974199355 -0.1773750037 -0.30496299267 0.34233599901 -0.13862299919
          -0.47644600272 0.21734400094 -0.22011299431 -0.25742098689 0.29623898864 -0.3442530036
          -0.18946300447 0.17974199355 -0.1773750037 -0.30496299267 0.34233599901 -0.13862299919
          -0.29486501217 0.23727999628 0.084538802505 -0.47644600272 0.21734400094 -0.22011299431
          -0.18946300447 0.17974199355 -0.1773750037 -0.29486501217 0.23727999628 0.084538802505
          -0.30496299267 0.34233599901 -0.13862299919 -0.021123599261 0.2901929915 -0.037268299609
          -0.30496299267 0.34233599901 -0.13862299919 -0.29486501217 0.23727999628 0.084538802505
          -0.28813400865 0.5 -0.011587300338 -0.021123599261 0.2901929915 -0.037268299609
          -0.30496299267 0.34233599901 -0.13862299919 -0.28813400865 0.5 -0.011587300338
          -0.29486501217 0.23727999628 0.084538802505 -0.47131600976 0.32570299506 -0.023170199245
          -0.30496299267 0.34233599901 -0.13862299919 -0.47131600976 0.32570299506 -0.023170199245
          -0.29486501217 0.23727999628 0.084538802505 -0.47644600272 0.21734400094 -0.22011299431
          -0.25742098689 0.29623898864 -0.3442530036 -0.30496299267 0.34233599901 -0.13862299919
          -0.26246398687 0.5 -0.27721399069 -0.12392300367 0.5 -0.12977199256
          -1.8121700287 0.32682698965 0.085832998157 -2.0516901016 0.5 -0.021020600572
          -1.9903299809 0.30669298768 -0.0096472296864 -1.8758599758 0.5 -0.063933096826
          -1.9338200092 0.5 -0.29581001401 -2.0516901016 0.5 -0.021020600572
          -1.8758599758 0.5 -0.063933096826 -1.9903299809 0.30669298768 -0.0096472296864
          -1.8656400442 0.28522598743 -0.2969610095 -1.9338200092 0.5 -0.29581001401
          -1.8758599758 0.5 -0.063933096826 -1.9903299809 0.30669298768 -0.0096472296864
          -1.7420699596 0.2584669888 -0.11043199897 -1.8656400442 0.28522598743 -0.2969610095
          -1.8758599758 0.5 -0.063933096826 -1.9903299809 0.30669298768 -0.0096472296864
          -1.7420699596 0.2584669888 -0.11043199897 -1.8656400442 0.28522598743 -0.2969610095
          -1.9903299809 0.30669298768 -0.0096472296864 -2.0033299923 0.17082899809 -0.16009199619
          -1.9903299809 0.30669298768 -0.0096472296864 -2.0033299923 0.17082899809 -0.16009199619
          -1.9655499458 0.017111200839 0.015656199306 -1.7420699596 0.2584669888 -0.11043199897
          -2.0033299923 0.17082899809 -0.16009199619 -1.9655499458 0.017111200839 0.015656199306
          -2.182790041 0.25494199991 0.029647100717 -1.9903299809 0.30669298768 -0.0096472296864
          -1.9903299809 0.30669298768 -0.0096472296864 -2.1895999908 0.28031998873 -0.27681100368
          -2.182790041 0.25494199991 0.029647100717 -2.0033299923 0.17082899809 -0.16009199619
          -2.141769886 0.5 -0.17799699306 -2.1895999908 0.28031998873 -0.27681100368
          -1.9903299809 0.30669298768 -0.0096472296864 -2.0033299923 0.17082899809 -0.16009199619
          -1.9338200092 0.5 -0.29581001401 -2.141769886 0.5 -0.17799699306
          -1.9903299809 0.30669298768 -0.0096472296864 -2.0033299923 0.17082899809 -0.16009199619
          -1.8656400442 0.28522598743 -0.2969610095 -1.9338200092 0.5 -0.29581001401
          -1.9903299809 0.30669298768 -0.0096472296864 -2.0033299923 0.17082899809 -0.16009199619
          -1.9338200092 0.5 -0.29581001401 -2.141769886 0.5 -0.17799699306
          -2.0516901016 0.5 -0.021020600572 -1.9903299809 0.30669298768 -0.0096472296864
          -2.141769886 0.5 -0.17799699306 -2.1895999908 0.28031998873 -0.27681100368
          -2.182790041 0.25494199991 0.029647100717 -1.9903299809 0.30669298768 -0.0096472296864
          2.4458899498 -0.25059598684 0.23923400044 2.2669200897 -0.32125800848 0.30331799388
          2.2194900513 -0.0036427800078 0.3248629868 2.3842000961 -0.1629229933 0.5
          2.4458899498 -0.25059598684 0.23923400044 2.1778399944 -0.17710599303 0.19188399613
          2.2194900513 -0.0036427800078 0.3248629868 2.2669200897 -0.32125800848 0.30331799388
          2.2669200897 -0.32125800848 0.30331799388 2.4458899498 -0.25059598684 0.23923400044
          2.1778399944 -0.17710599303 0.19188399613 2.2314100266 -0.30056801438 0.0065283500589
          2.2669200897 -0.32125800848 0.30331799388 2.0752000809 -0.5 0.1838440001
          2.2314100266 -0.30056801438 0.0065283500589 2.1778399944 -0.17710599303 0.19188399613
          2.2669200897 -0.32125800848 0.30331799388 2.0565500259 -0.31903299689 0.2972239852
          2.0752000809 -0.5 0.1838440001 2.1778399944 -0.17710599303 0.19188399613
          2.1368100643 -0.22857700288 0.5 2.0565500259 -0.31903299689 0.2972239852
          2.2669200897 -0.32125800848 0.30331799388 2.1778399944 -0.17710599303 0.19188399613
          2.2669200897 -0.32125800848 0.30331799388 2.1368100643 -0.22857700288 0.5
          2.1778399944 -0.17710599303 0.19188399613 2.2194900513 -0.0036427800078 0.3248629868
          2.2669200897 -0.32125800848 0.30331799388 2.2103800774 -0.5 0.38068500161
          2.0752000809 -0.5 0.1838440001 2.0565500259 -0.31903299689 0.2972239852
          2.4503700733 -0.5 0.32925000787 2.2103800774 -0.5 0.38068500161
          2.3215301037 -0.5 0.19653899968 2.2669200897 -0.32125800848 0.30331799388
          4.0157899857 0.23598599434 -0.23627699912 3.8109300137 0.5 -0.32591500878
          4.0096001625 0.5 -0.34201300144 3.9085800648 0.5 -0.15719300508
          -3.387419939 -0.020452000201 -0.26496699452 -3.3937699795 -0.1384550035 -0.5
          -3.2809400558 -0.26598799229 -0.5 -3.1430599689 -0.16607600451 -0.5
          -3.387419939 -0.020452000201 -0.26496699452 -3.3937699795 -0.1384550035 -0.5
          -3.406719923 -0.26567399502 -0.27803298831 -3.2809400558 -0.26598799229 -0.5
          -3.3937699795 -0.1384550035 -0.5 -3.5095100403 -0.29471600056 -0.5
          -3.406719923 -0.26567399502 -0.27803298831 -3.2809400558 -0.26598799229 -0.5
          -3.5095100403 -0.29471600056 -0.5 -3.4891300201 -0.48809701204 -0.5
          -3.406719923 -0.26567399502 -0.27803298831 -3.2809400558 -0.26598799229 -0.5
          -3.406719923 -0.26567399502 -0.27803298831 -3.4891300201 -0.48809701204 -0.5
          -3.3308799267 -0.5 -0.28216999769 -3.2809400558 -0.26598799229 -0.5
          -3.0114998817 -0.30267500877 -0.29305499792 -3.2809400558 -0.26598799229 -0.5
          -3.1430599689 -0.16607600451 -0.5 -3.1692500114 -0.17956000566 -0.18042400479
          -3.1629300117 -0.5 -0.34590101242 -3.2809400558 -0.26598799229 -0.5
          -3.0114998817 -0.30267500877 -0.29305499792 -3.1692500114 -0.17956000566 -0.18042400479
          -3.1629300117 -0.5 -0.34590101242 -3.1973099709 -0.4143140018 -0.5
          -3.0114998817 -0.30267500877 -0.29305499792 -3.2809400558 -0.26598799229 -0.5
          -3.0114998817 -0.30267500877 -0.29305499792 -3.1973099709 -0.4143140018 -0.5
          -3.1430599689 -0.16607600451 -0.5 -3.2809400558 -0.26598799229 -0.5
          0.58827602863 -0.023083500564 0.03204099834 0.69335997105 0.13933600485 0.14205299318
          0.80673497915 0.05526150018 -0.040332399309 0.76386100054 -0.10622999817 0.089437901974
          0.58827602863 -0.023083500564 0.03204099834 0.69335997105 0.13933600485 0.14205299318
          0.76386100054 -0.10622999817 0.089437901974 0.75085902214 -0.045475300401 0.28253901005
          0.58512401581 -0.18639500439 0.18318599463 0.75085902214 -0.045475300401 0.28253901005
          0.58827602863 -0.023083500564 0.03204099834 0.76386100054 -0.10622999817 0.089437901974
          0.58512401581 -0.18639500439 0.18318599463 0.57815998793 -0.31825500727 -0.050177000463
          0.76386100054 -0.10622999817 0.089437901974 0.58827602863 -0.023083500564 0.03204099834
          0.76386100054 -0.10622999817 0.089437901974 0.69335997105 0.13933600485 0.14205299318
          0.87731397152 0.049460299313 0.15210199356 0.75085902214 -0.045475300401 0.28253901005
          0.76386100054 -0.10622999817 0.089437901974 0.69335997105 0.13933600485 0.14205299318
          0.80673497915 0.05526150018 -0.040332399309 0.87731397152 0.049460299313 0.15210199356
          0.76386100054 -0.10622999817 0.089437901974 0.87731397152 0.049460299313 0.15210199356
          0.80673497915 0.05526150018 -0.040332399309 1.0260499716 0.011771400459 0.016185000539
          -3.40102005 0.049610700458 0.26974400878 -3.2899799347 -0.19551900029 0.21153800189
          -3.6202099323 -0.16945900023 0.16224400699 -3.5796399117 -0.036828301847 0.30965799093
          -3.5796399117 -0.036828301847 0.30965799093 -3.5974299908 0.015700999647 0.0042460002005
          -3.6202099323 -0.16945900023 0.16224400699 -3.40102005 0.049610700458 0.26974400878
          -3.5796399117 -0.036828301847 0.30965799093 -3.776599884 -0.0024208100513 0.27819898725
          -3.6202099323 -0.16945900023 0.16224400699 -3.5974299908 0.015700999647 0.0042460002005
          0.16357299685 0.41697001457 -0.5 0.22253899276 0.29792100191 -0.30861100554
          0.38934001327 0.21350599825 -0.5 0.20413899422 0.23499399424 -0.5
          0.16357299685 0.41697001457 -0.5 0.20413899422 0.23499399424 -0.5
          -0.020521700382 0.27518200874 -0.3097819984 0.22253899276 0.29792100191 -0.30861100554
          0.16357299685 0.41697001457 -0.5 -0.020521700382 0.27518200874 -0.3097819984
          -0.0014522599522 0.5 -0.37516400218 0.22253899276 0.29792100191 -0.30861100554
          0.16357299685 0.41697001457 -0.5 0.22253899276 0.29792100191 -0.30861100554
          -0.0014522599522 0.5 -0.37516400218 0.2306600064 0.5 -0.31376600266
          0.22253899276 0.29792100191 -0.30861100554 0.075165897608 0.5 -0.16578200459
          -0.0014522599522 0.5 -0.37516400218 0.2306600064 0.5 -0.31376600266
          0.2306600064 0.5 -0.31376600266 0.075165897608 0.5 -0.16578200459
          0.27108699083 0.5 -0.08351060003 0.22253899276 0.29792100191 -0.30861100554
          -0.020521700382 0.27518200874 -0.3097819984 0.075165897608 0.5 -0.16578200459
          -0.0014522599522 0.5 -0.37516400218 0.22253899276 0.29792100191 -0.30861100554
          0.20413899422 0.23499399424 -0.5 0.086851902306 0.090062998235 -0.5
          -0.020521700382 0.27518200874 -0.3097819984 0.22253899276 0.29792100191 -0.30861100554
          0.20413899422 0.23499399424 -0.5 0.3679780066 0.042948998511 -0.26218301058
          0.22253899276 0.29792100191 -0.30861100554 0.38934001327 0.21350599825 -0.5
          0.3679780066 0.042948998511 -0.26218301058 0.49744200706 0.32136800885 -0.31016400456
          0.22253899276 0.29792100191 -0.30861100554 0.38934001327 0.21350599825 -0.5
          0.3679780066 0.042948998511 -0.26218301058 0.49744200706 0.32136800885 -0.31016400456
          0.35873600841 0.27615499496 -0.16060699522 0.22253899276 0.29792100191 -0.30861100554
          0.22253899276 0.29792100191 -0.30861100554 0.35873600841 0.27615499496 -0.16060699522
          0.42726400495 0.5 -0.227602005 0.49744200706 0.32136800885 -0.31016400456
          0.22253899276 0.29792100191 -0.30861100554 0.49744200706 0.32136800885 -0.31016400456
          0.42863300443 0.48355901241 -0.5 0.38934001327 0.21350599825 -0.5
          0.36774501204 -0.27583301067 0.050296399742 0.2199189961 -0.15206000209 -0.010414100252
          0.48660299182 -0.097960598767 -0.14581799507 0.3682860136 0.00067014299566 0.0082637900487
          0.36774501204 -0.27583301067 0.050296399742 0.27188199759 -0.21608300507 -0.19496400654
          0.48660299182 -0.097960598767 -0.14581799507 0.2199189961 -0.15206000209 -0.010414100252
          0.2199189961 -0.15206000209 -0.010414100252 0.27188199759 -0.21608300507 -0.19496400654
          0.48660299182 -0.097960598767 -0.14581799507 0.3682860136 0.00067014299566 0.0082637900487
          1.8512899876 -0.25720700622 0.29749301076 1.8789199591 -0.10240700096 0.16247299314
          2.0565500259 -0.31903299689 0.2972239852 1.9551000595 0.040498699993 0.28340399265
          1.8789199591 -0.10240700096 0.16247299314 1.9551000595 0.040498699993 0.28340399265
          1.8512899876 -0.25720700622 0.29749301076 1.71875 0.012455300428 0.32105600834
          1.8789199591 -0.10240700096 0.16247299314 1.71875 0.012455300428 0.32105600834
          1.7132099867 0.18727500737 0.17964400351 1.9551000595 0.040498699993 0.28340399265
          -0.47420999408 -0.29338499904 -0.29220598936 -0.77074998617 -0.30250000954 -0.3132340014
          -0.59533298016 -0.13490399718 -0.5 -0.6270070076 -0.18018999696 -0.18880400062
          -0.47420999408 -0.29338499904 -0.29220598936 -0.6270070076 -0.18018999696 -0.18880400062
          -0.59533298016 -0.13490399718 -0.5 -0.46267700195 -0.020818000659 -0.27643701434
          1.6828099489 -0.15067499876 0.17043499649 1.7191100121 -0.2926889956 0.013918399811
          1.9245300293 -0.27816799283 0.073713801801 1.8789199591 -0.10240700096 0.16247299314
          4.1566100121 -0.27463600039 -0.28568801284 4.1566100121 -0.01251959987 -0.28246301413
          4.3206100464 -0.13641299307 -0.5 4.3479599953 -0.069560296834 -0.31158301234
          4.4887499809 -0.30371600389 -0.5 4.3206100464 -0.13641299307 -0.5
          4.3479599953 -0.069560296834 -0.31158301234 4.4999699593 -0.30107301474 -0.267922014
          4.4887499809 -0.30371600389 -0.5 4.3479599953 -0.069560296834 -0.31158301234
          4.5256800652 -0.098457798362 -0.5 4.4999699593 -0.30107301474 -0.267922014
          4.4887499809 -0.30371600389 -0.5 4.3206100464 -0.13641299307 -0.5
          4.5256800652 -0.098457798362 -0.5 4.3479599953 -0.069560296834 -0.31158301234
          4.5178999901 -0.10659900308 -0.17478400469 4.5256800652 -0.098457798362 -0.5
          4.3479599953 -0.069560296834 -0.31158301234 4.4999699593 -0.30107301474 -0.267922014
          4.4943199158 0.06769169867 -0.29010298848 4.5256800652 -0.098457798362 -0.5
          4.3479599953 -0.069560296834 -0.31158301234 4.5178999901 -0.10659900308 -0.17478400469
          1.8699899912 -0.30787700415 -0.26772201061 1.8764899969 -0.15924200416 -0.081890702248
          1.9453500509 -0.087545797229 -0.2573390007 2.0320599079 -0.29999300838 -0.11793000251
          1.8699899912 -0.30787700415 -0.26772201061 1.6971999407 -0.18535399437 -0.17042499781
          1.9453500509 -0.087545797229 -0.2573390007 1.8764899969 -0.15924200416 -0.081890702248
          1.8764899969 -0.15924200416 -0.081890702248 1.7197300196 -0.0059337001294 -0.015229499899
          1.6971999407 -0.18535399437 -0.17042499781 1.9453500509 -0.087545797229 -0.2573390007
          2.0320599079 -0.29999300838 -0.11793000251 1.9453500509 -0.087545797229 -0.2573390007
          2.0873699188 -0.15330499411 0.011435699649 1.8764899969 -0.15924200416 -0.081890702248
          2.0320599079 -0.29999300838 -0.11793000251 2.0873699188 -0.15330499411 0.011435699649
          1.9245300293 -0.27816799283 0.073713801801 1.8764899969 -0.15924200416 -0.081890702248
          1.8789199591 -0.10240700096 0.16247299314 1.7197300196 -0.0059337001294 -0.015229499899
          1.8764899969 -0.15924200416 -0.081890702248 1.9567300081 0.0023706499487 0.0081458101049
          -0.72751402855 0.0171670001 -0.5 -0.63783198595 0.084412999451 -0.319272995
          -0.55288797617 0.023504899815 -0.5 -0.59533298016 -0.13490399718 -0.5
          -0.72751402855 0.0171670001 -0.5 -0.63783198595 0.084412999451 -0.319272995
          -0.59533298016 -0.13490399718 -0.5 -0.7856760025 -0.061230801046 -0.29652500153
          -0.6270070076 -0.18018999696 -0.18880400062 -0.63783198595 0.084412999451 -0.319272995
          -0.7856760025 -0.061230801046 -0.29652500153 -0.59533298016 -0.13490399718 -0.5
          -0.59533298016 -0.13490399718 -0.5 -0.77074998617 -0.30250000954 -0.3132340014
          -0.7856760025 -0.061230801046 -0.29652500153 -0.6270070076 -0.18018999696 -0.18880400062
          -0.6270070076 -0.18018999696 -0.18880400062 -0.63783198595 0.084412999451 -0.319272995
          -0.59533298016 -0.13490399718 -0.5 -0.46267700195 -0.020818000659 -0.27643701434
          4.5181698799 -0.25569599867 -0.00080205698032 4.7109298706 -0.5 0.037262801081
          4.814139843 -0.29069000483 0.014058699831 4.7140798569 -0.5 -0.1463650018
          4.5181698799 -0.25569599867 -0.00080205698032 4.7140798569 -0.5 -0.1463650018
          4.814139843 -0.29069000483 0.014058699831 4.6962199211 -0.21809899807 -0.17522199452
          4.5181698799 -0.25569599867 -0.00080205698032 4.7140798569 -0.5 -0.1463650018
          4.6962199211 -0.21809899807 -0.17522199452 4.5304999352 -0.5 -0.15178099275
          4.5181698799 -0.25569599867 -0.00080205698032 4.7109298706 -0.5 0.037262801081
          4.7140798569 -0.5 -0.1463650018 4.5304999352 -0.5 -0.15178099275
          -4.5957798958 0.24809199572 0.32881501317 -4.4165802002 0.22745400667 0.23878499866
          -4.6812400818 0.14698000252 0.1767770052 -4.5181999207 0.028785899282 0.28230598569
          -4.5957798958 0.24809199572 0.32881501317 -4.6812400818 0.14698000252 0.1767770052
          -4.6791801453 0.16429899633 0.5 -4.5181999207 0.028785899282 0.28230598569
          -4.5152201653 0.17846100032 0.5 -4.5957798958 0.24809199572 0.32881501317
          -4.6791801453 0.16429899633 0.5 -4.5181999207 0.028785899282 0.28230598569
          -4.5152201653 0.17846100032 0.5 -4.4165802002 0.22745400667 0.23878499866
          -4.5957798958 0.24809199572 0.32881501317 -4.5181999207 0.028785899282 0.28230598569
          -4.5957798958 0.24809199572 0.32881501317 -4.7674899101 0.33730000257 0.27226099372
          -4.6812400818 0.14698000252 0.1767770052 -4.5506501198 0.30194398761 0.066922001541
          -4.5957798958 0.24809199572 0.32881501317 -4.6425299644 0.5 0.1688580066
          -4.7674899101 0.33730000257 0.27226099372 -4.5506501198 0.30194398761 0.066922001541
          -2.6367399693 0.26534798741 0.078260503709 -2.5539898872 0.16441999376 -0.075327299535
          -2.6850099564 0.20022499561 -0.22423900664 -2.8308598995 0.31636199355 -0.103422001
          -4.7461600304 -0.5 -0.23019599915 -4.6199498177 -0.5 -0.060735598207
          -4.7693600655 -0.5 -0.069937601686 -4.7982001305 -0.27365100384 -0.020341299474
          -4.2342700958 -0.2943969965 -0.036790598184 -4.4352798462 -0.5 -0.094545200467
          -4.439789772 -0.27735000849 -0.054897699505 -4.2580599785 -0.5 -0.032561998814
          -4.2342700958 -0.2943969965 -0.036790598184 -4.2746400833 -0.5 -0.25492700934
          -4.439789772 -0.27735000849 -0.054897699505 -4.4352798462 -0.5 -0.094545200467
          -4.439789772 -0.27735000849 -0.054897699505 -4.4539299011 -0.1930360049 -0.27674099803
          -4.4352798462 -0.5 -0.094545200467 -4.2746400833 -0.5 -0.25492700934
          -4.439789772 -0.27735000849 -0.054897699505 -4.4539299011 -0.1930360049 -0.27674099803
          -4.5859699249 -0.5 -0.20652399957 -4.4352798462 -0.5 -0.094545200467
          -4.4352798462 -0.5 -0.094545200467 -4.4539299011 -0.1930360049 -0.27674099803
          -4.5859699249 -0.5 -0.20652399957 -4.2746400833 -0.5 -0.25492700934
          -2.3742499352 0.16180799901 -0.16647900641 -2.5539898872 0.16441999376 -0.075327299535
          -2.6850099564 0.20022499561 -0.22423900664 -2.4949100018 0.29038199782 -0.30940899253
          -2.3742499352 0.16180799901 -0.16647900641 -2.6364200115 -0.0513737984 -0.25086298585
          -2.6850099564 0.20022499561 -0.22423900664 -2.5539898872 0.16441999376 -0.075327299535
          -2.3742499352 0.16180799901 -0.16647900641 -2.4091000557 0.010666499846 0.010404500179
          -2.6364200115 -0.0513737984 -0.25086298585 -2.5539898872 0.16441999376 -0.075327299535
          -2.3742499352 0.16180799901 -0.16647900641 -2.4123599529 0.30793198943 -0.0017855500337
          -2.4091000557 0.010666499846 0.010404500179 -2.5539898872 0.16441999376 -0.075327299535
          -2.4123599529 0.30793198943 -0.0017855500337 -2.3996500969 0.17564900219 0.17784799635
          -2.4091000557 0.010666499846 0.010404500179 -2.5539898872 0.16441999376 -0.075327299535
          -2.4091000557 0.010666499846 0.010404500179 -2.3996500969 0.17564900219 0.17784799635
          -2.6441700459 0.0031107501127 0.0051095401868 -2.5539898872 0.16441999376 -0.075327299535
          -2.5539898872 0.16441999376 -0.075327299535 -2.4091000557 0.010666499846 0.010404500179
          -2.6364200115 -0.0513737984 -0.25086298585 -2.6441700459 0.0031107501127 0.0051095401868
          -2.5539898872 0.16441999376 -0.075327299535 -2.6364200115 -0.0513737984 -0.25086298585
          -2.6850099564 0.20022499561 -0.22423900664 -2.6441700459 0.0031107501127 0.0051095401868
          -2.5539898872 0.16441999376 -0.075327299535 -2.6441700459 0.0031107501127 0.0051095401868
          -2.6850099564 0.20022499561 -0.22423900664 -2.8699100018 0.034952599555 0.013808799908
          -2.8308598995 0.31636199355 -0.103422001 -2.5539898872 0.16441999376 -0.075327299535
          -2.6850099564 0.20022499561 -0.22423900664 -2.8699100018 0.034952599555 0.013808799908
          -3.0681700706 -0.022411899641 -0.31216698885 -3.2168300152 0.015511999838 -0.16400499642
          -3.1692500114 -0.17956000566 -0.18042400479 -3.387419939 -0.020452000201 -0.26496699452
          -3.2168300152 0.015511999838 -0.16400499642 -3.387419939 -0.020452000201 -0.26496699452
          -3.4054200649 -0.24873800576 -0.029902800918 -3.1692500114 -0.17956000566 -0.18042400479
          -3.0681700706 -0.022411899641 -0.31216698885 -2.9755399227 0.12714900076 -0.1661580056
          -3.0067799091 -0.070524998009 -0.1112980023 -3.2168300152 0.015511999838 -0.16400499642
          -3.5640099049 0.29994499683 -0.013255200349 -3.3652899265 0.29221200943 0.018539199606
          -3.5974299908 0.015700999647 0.0042460002005 -3.6195299625 0.18837699294 0.1758890003
          -3.4390599728 0.16396200657 -0.12648099661 -3.3652899265 0.29221200943 0.018539199606
          -3.5974299908 0.015700999647 0.0042460002005 -3.5640099049 0.29994499683 -0.013255200349
          -3.6415400505 0.18903900683 -0.16241000593 -3.4390599728 0.16396200657 -0.12648099661
          -3.5974299908 0.015700999647 0.0042460002005 -3.5640099049 0.29994499683 -0.013255200349
          -3.4697299004 0.28407201171 -0.298379004 -3.4390599728 0.16396200657 -0.12648099661
          -3.6415400505 0.18903900683 -0.16241000593 -3.5640099049 0.29994499683 -0.013255200349
          -3.4697299004 0.28407201171 -0.298379004 -3.3652899265 0.29221200943 0.018539199606
          -3.4390599728 0.16396200657 -0.12648099661 -3.5640099049 0.29994499683 -0.013255200349
          -3.4697299004 0.28407201171 -0.298379004 -3.2857298851 0.5 -0.18894700706
          -3.3652899265 0.29221200943 0.018539199606 -3.5640099049 0.29994499683 -0.013255200349
          -3.5640099049 0.29994499683 -0.013255200349 -3.7612600327 0.27116200328 0.015408799984
          -3.6247899532 0.5 0.17990300059 -3.6195299625 0.18837699294 0.1758890003
          -3.5640099049 0.29994499683 -0.013255200349 -3.6195299625 0.18837699294 0.1758890003
          -3.6247899532 0.5 0.17990300059 -3.3868999481 0.28687500954 0.25560098886
          -3.5640099049 0.29994499683 -0.013255200349 -3.6247899532 0.5 0.17990300059
          -3.5453898907 0.5 0.00052557198796 -3.3868999481 0.28687500954 0.25560098886
          -3.5453898907 0.5 0.00052557198796 -3.5640099049 0.29994499683 -0.013255200349
          -3.7465999126 0.5 0.026138799265 -3.6247899532 0.5 0.17990300059
          -3.5453898907 0.5 0.00052557198796 -3.6554999352 0.5 -0.12951600552
          -3.7465999126 0.5 0.026138799265 -3.5640099049 0.29994499683 -0.013255200349
          -3.5640099049 0.29994499683 -0.013255200349 -3.6554999352 0.5 -0.12951600552
          -3.7465999126 0.5 0.026138799265 -3.7612600327 0.27116200328 0.015408799984
          -3.5640099049 0.29994499683 -0.013255200349 -3.7612600327 0.27116200328 0.015408799984
          -3.7465999126 0.5 0.026138799265 -3.6247899532 0.5 0.17990300059
          1.3097499609 -0.32079198956 -0.30054301023 1.3746500015 -0.33837598562 -0.5
          1.5000799894 -0.33221799135 -0.20392900705 1.4673299789 -0.16130299866 -0.30513200164
          1.3097499609 -0.32079198956 -0.30054301023 1.2388900518 -0.17473700643 -0.16655999422
          1.4673299789 -0.16130299866 -0.30513200164 1.5000799894 -0.33221799135 -0.20392900705
          1.5000799894 -0.33221799135 -0.20392900705 1.2388900518 -0.17473700643 -0.16655999422
          1.4673299789 -0.16130299866 -0.30513200164 1.4679900408 -0.23194299638 -0.032342601568
          1.5000799894 -0.33221799135 -0.20392900705 1.7191100121 -0.2926889956 0.013918399811
          1.5954600573 -0.5 -0.26120200753 1.664839983 -0.5 0.021711599082
          1.6173299551 0.34555700421 -0.5 1.6638499498 0.32388100028 -0.30573499203
          1.7353800535 0.5 -0.37083101273 1.8703600168 0.23445099592 -0.5
          1.6173299551 0.34555700421 -0.5 1.6999000311 0.18993200362 -0.5
          1.6638499498 0.32388100028 -0.30573499203 1.8703600168 0.23445099592 -0.5
          1.6999000311 0.18993200362 -0.5 1.6638499498 0.32388100028 -0.30573499203
          1.8703600168 0.23445099592 -0.5 1.8725500107 0.093445502222 -0.32259699702
          1.6999000311 0.18993200362 -0.5 1.7617299557 0.19749200344 -0.18400299549
          1.6638499498 0.32388100028 -0.30573499203 1.8725500107 0.093445502222 -0.32259699702
          1.6999000311 0.18993200362 -0.5 1.7617299557 0.19749200344 -0.18400299549
          1.6074999571 0.030789300799 -0.26509699225 1.6638499498 0.32388100028 -0.30573499203
          1.6638499498 0.32388100028 -0.30573499203 1.7617299557 0.19749200344 -0.18400299549
          1.8703600168 0.23445099592 -0.5 1.8725500107 0.093445502222 -0.32259699702
          1.7617299557 0.19749200344 -0.18400299549 1.8703600168 0.23445099592 -0.5
          2.0216500759 0.22515000403 -0.27024498582 1.6638499498 0.32388100028 -0.30573499203
          1.7617299557 0.19749200344 -0.18400299549 1.6638499498 0.32388100028 -0.30573499203
          2.0216500759 0.22515000403 -0.27024498582 1.8882399797 0.5 -0.32798698545
          1.6638499498 0.32388100028 -0.30573499203 1.8703600168 0.23445099592 -0.5
          2.0216500759 0.22515000403 -0.27024498582 1.8882399797 0.5 -0.32798698545
          1.6638499498 0.32388100028 -0.30573499203 1.8703600168 0.23445099592 -0.5
          1.8882399797 0.5 -0.32798698545 1.7353800535 0.5 -0.37083101273
          2.6700599194 -0.18108099699 -0.17258299887 2.9201900959 0.0039753098972 -0.016150400043
          2.9524600506 -0.22408300638 -0.21185599267 2.809910059 -0.30858701468 -0.088228099048
          2.809910059 -0.30858701468 -0.088228099048 2.9201900959 0.0039753098972 -0.016150400043
          2.9524600506 -0.22408300638 -0.21185599267 2.94404006 -0.24824899435 0.048307999969
          2.809910059 -0.30858701468 -0.088228099048 3.0969901085 -0.5 -0.1024639979
          2.94404006 -0.24824899435 0.048307999969 2.9524600506 -0.22408300638 -0.21185599267
          2.809910059 -0.30858701468 -0.088228099048 3.0969901085 -0.5 -0.1024639979
          2.9252800941 -0.5 0.11620400101 2.94404006 -0.24824899435 0.048307999969
          2.809910059 -0.30858701468 -0.088228099048 2.94404006 -0.24824899435 0.048307999969
          2.9252800941 -0.5 0.11620400101 2.7222399712 -0.5 0.087961599231
          2.750590086 -0.5 -0.077522300184 2.809910059 -0.30858701468 -0.088228099048
          2.9252800941 -0.5 0.11620400101 2.7222399712 -0.5 0.087961599231
          2.750590086 -0.5 -0.077522300184 2.6354598999 -0.29880100489 0.010485099629
          2.809910059 -0.30858701468 -0.088228099048 2.7222399712 -0.5 0.087961599231
          2.809910059 -0.30858701468 -0.088228099048 2.6354598999 -0.29880100489 0.010485099629
          2.750590086 -0.5 -0.077522300184 2.6533699036 -0.5 -0.22465799749
          2.809910059 -0.30858701468 -0.088228099048 2.6354598999 -0.29880100489 0.010485099629
          2.94404006 -0.24824899435 0.048307999969 2.7222399712 -0.5 0.087961599231
          2.6354598999 -0.29880100489 0.010485099629 2.809910059 -0.30858701468 -0.088228099048
          2.94404006 -0.24824899435 0.048307999969 2.7103700638 -0.17533199489 0.17696000636
          2.6354598999 -0.29880100489 0.010485099629 2.6777200699 -0.0055014099926 -0.0048864497803
          2.809910059 -0.30858701468 -0.088228099048 2.7103700638 -0.17533199489 0.17696000636
          2.809910059 -0.30858701468 -0.088228099048 2.6777200699 -0.0055014099926 -0.0048864497803
          2.94404006 -0.24824899435 0.048307999969 2.7103700638 -0.17533199489 0.17696000636
          2.809910059 -0.30858701468 -0.088228099048 2.9201900959 0.0039753098972 -0.016150400043
          2.94404006 -0.24824899435 0.048307999969 2.6777200699 -0.0055014099926 -0.0048864497803
          1.0750000477 -0.14948399365 0.12495800108 0.87731397152 0.049460299313 0.15210199356
          1.0260499716 0.011771400459 0.016185000539 1.0831899643 -0.026730500162 0.28337299824
          3.9046399593 0.029231099412 -0.28819599748 4.1566100121 -0.01251959987 -0.28246301413
          3.9944400787 0.12515999377 -0.5 4.1330800056 -0.018558099866 -0.5
          3.9046399593 0.029231099412 -0.28819599748 4.1330800056 -0.018558099866 -0.5
          3.9944400787 0.12515999377 -0.5 3.9156999588 -0.083973996341 -0.5
          3.9046399593 0.029231099412 -0.28819599748 4.1566100121 -0.01251959987 -0.28246301413
          4.1330800056 -0.018558099866 -0.5 3.9156999588 -0.083973996341 -0.5
          -2.187210083 -0.061865199357 0.039609499276 -2.1682898998 -0.037599701434 -0.23476999998
          -1.9655499458 0.017111200839 0.015656199306 -2.2036099434 0.092982001603 -0.086743198335
          -2.1682898998 -0.037599701434 -0.23476999998 -2.4091000557 0.010666499846 0.010404500179
          -2.2036099434 0.092982001603 -0.086743198335 -2.187210083 -0.061865199357 0.039609499276
          -2.1682898998 -0.037599701434 -0.23476999998 -2.4208400249 -0.17098300159 -0.17608100176
          -2.2036099434 0.092982001603 -0.086743198335 -2.4091000557 0.010666499846 0.010404500179
          -2.1682898998 -0.037599701434 -0.23476999998 -2.4208400249 -0.17098300159 -0.17608100176
          -2.3735599518 -0.0037444499321 -0.31686800718 -2.2036099434 0.092982001603 -0.086743198335
          -2.1682898998 -0.037599701434 -0.23476999998 -2.3735599518 -0.0037444499321 -0.31686800718
          -2.3742499352 0.16180799901 -0.16647900641 -2.2036099434 0.092982001603 -0.086743198335
          -2.2036099434 0.092982001603 -0.086743198335 -2.3735599518 -0.0037444499321 -0.31686800718
          -2.3742499352 0.16180799901 -0.16647900641 -2.4091000557 0.010666499846 0.010404500179
          -2.2036099434 0.092982001603 -0.086743198335 -2.4091000557 0.010666499846 0.010404500179
          -2.3742499352 0.16180799901 -0.16647900641 -2.4123599529 0.30793198943 -0.0017855500337
          -2.182790041 0.25494199991 0.029647100717 -2.2036099434 0.092982001603 -0.086743198335
          -2.3742499352 0.16180799901 -0.16647900641 -2.4123599529 0.30793198943 -0.0017855500337
          -2.182790041 0.25494199991 0.029647100717 -2.4091000557 0.010666499846 0.010404500179
          -2.2036099434 0.092982001603 -0.086743198335 -2.4123599529 0.30793198943 -0.0017855500337
          -2.182790041 0.25494199991 0.029647100717 -2.2036099434 0.092982001603 -0.086743198335
          -2.4091000557 0.010666499846 0.010404500179 -2.3996500969 0.17564900219 0.17784799635
          -2.182790041 0.25494199991 0.029647100717 -2.187210083 -0.061865199357 0.039609499276
          -2.2036099434 0.092982001603 -0.086743198335 -2.3996500969 0.17564900219 0.17784799635
          -2.2036099434 0.092982001603 -0.086743198335 -2.187210083 -0.061865199357 0.039609499276
          -2.4091000557 0.010666499846 0.010404500179 -2.3996500969 0.17564900219 0.17784799635
          -2.2036099434 0.092982001603 -0.086743198335 -2.4208400249 -0.17098300159 -0.17608100176
          -2.3735599518 -0.0037444499321 -0.31686800718 -2.4091000557 0.010666499846 0.010404500179
          4.8432202339 0.33124399185 0.15127900243 5 0.27808099985 0.26434999704
          4.9942002296 0.5 0.13716499507 5 0.29265201092 0.032442100346
          4.8432202339 0.33124399185 0.15127900243 4.9942002296 0.5 0.13716499507
          4.8203802109 0.5 -0.047230999917 5 0.29265201092 0.032442100346
          4.8203802109 0.5 -0.047230999917 4.8432202339 0.33124399185 0.15127900243
          5 0.29265201092 0.032442100346 4.8058700562 0.17079499364 -0.0053127701394
          4.8432202339 0.33124399185 0.15127900243 5 0.27808099985 0.26434999704
          5 0.29265201092 0.032442100346 5 0.029062800109 0.15694400668
          4.8432202339 0.33124399185 0.15127900243 4.8042798042 0.5 0.31367200613
          5 0.27808099985 0.26434999704 4.8295898438 0.25321400166 0.5
          -0.65928399563 -0.29948800802 0.30083200336 -0.47073799372 -0.22246700525 0.21898700297
          -0.53887498379 -0.034443799406 0.20534600317 -0.74051898718 -0.13983599842 0.1276730001
          -0.65928399563 -0.29948800802 0.30083200336 -0.53887498379 -0.034443799406 0.20534600317
          -0.70620900393 0.037291798741 0.28922000527 -0.74051898718 -0.13983599842 0.1276730001
          -0.70902901888 -0.081924401224 0.5 -0.65928399563 -0.29948800802 0.30083200336
          -0.53887498379 -0.034443799406 0.20534600317 -0.70620900393 0.037291798741 0.28922000527
          -0.70902901888 -0.081924401224 0.5 -0.53887498379 -0.034443799406 0.20534600317
          -0.51341497898 -0.020596599206 0.5 -0.70620900393 0.037291798741 0.28922000527
          -0.70902901888 -0.081924401224 0.5 -0.65928399563 -0.29948800802 0.30083200336
          -0.51341497898 -0.020596599206 0.5 -0.53887498379 -0.034443799406 0.20534600317
          -0.65928399563 -0.29948800802 0.30083200336 -0.55561101437 -0.26461198926 0.5
          -0.51341497898 -0.020596599206 0.5 -0.53887498379 -0.034443799406 0.20534600317
          -0.51341497898 -0.020596599206 0.5 -0.54225701094 0.182366997 0.5
          -0.70620900393 0.037291798741 0.28922000527 -0.53887498379 -0.034443799406 0.20534600317
          -0.51341497898 -0.020596599206 0.5 -0.35255399346 0.016716400161 0.25871700048
          -0.54225701094 0.182366997 0.5 -0.53887498379 -0.034443799406 0.20534600317
          -0.53887498379 -0.034443799406 0.20534600317 -0.70620900393 0.037291798741 0.28922000527
          -0.74051898718 -0.13983599842 0.1276730001 -0.62403798103 0.035430200398 0.037675399333
          -1.2810100317 -0.16105599701 -0.5 -1.4115899801 -0.27296701074 -0.5
          -1.3918299675 -0.029553499073 -0.5 -1.5251499414 -0.076651901007 -0.31482899189
          -1.5251499414 -0.076651901007 -0.31482899189 -1.3341200352 0.058667398989 -0.30476099253
          -1.3918299675 -0.029553499073 -0.5 -1.2810100317 -0.16105599701 -0.5
          -3.315500021 0.091922298074 0.5 -3.177740097 0.19153399765 0.19352599978
          -3.2058999538 0.30942299962 0.5 -3.3868999481 0.28687500954 0.25560098886
          -3.40102005 0.049610700458 0.26974400878 -3.3868999481 0.28687500954 0.25560098886
          -3.315500021 0.091922298074 0.5 -3.4394900799 0.2320100069 0.5
          -1.0471099615 0.090339496732 -0.5 -1.1455899477 -0.027385700494 -0.5
          -1.1722400188 -0.078797601163 -0.24050499499 -0.96304500103 0.042934101075 -0.20367699862
          -0.96304500103 0.042934101075 -0.20367699862 -1.1455899477 -0.027385700494 -0.5
          -0.98949998617 -0.096335403621 -0.5 -1.0471099615 0.090339496732 -0.5
          -1.3414299488 0.2976360023 -0.30167099833 -1.2034000158 0.121028997 -0.5
          -1.3341200352 0.058667398989 -0.30476099253 -1.1753100157 0.18597100675 -0.21642799675
          -1.1722400188 -0.078797601163 -0.24050499499 -1.1753100157 0.18597100675 -0.21642799675
          -1.3341200352 0.058667398989 -0.30476099253 -1.2034000158 0.121028997 -0.5
          -1.1722400188 -0.078797601163 -0.24050499499 -1.2034000158 0.121028997 -0.5
          -1.3341200352 0.058667398989 -0.30476099253 -1.1455899477 -0.027385700494 -0.5
          -1.2034000158 0.121028997 -0.5 -1.1455899477 -0.027385700494 -0.5
          -1.1722400188 -0.078797601163 -0.24050499499 -1.0471099615 0.090339496732 -0.5
          -1.1753100157 0.18597100675 -0.21642799675 -1.2034000158 0.121028997 -0.5
          -1.1722400188 -0.078797601163 -0.24050499499 -1.0471099615 0.090339496732 -0.5
          -1.3341200352 0.058667398989 -0.30476099253 -1.2034000158 0.121028997 -0.5
          -1.3918299675 -0.029553499073 -0.5 -1.1455899477 -0.027385700494 -0.5
          -1.3341200352 0.058667398989 -0.30476099253 -1.3366099596 0.20833599567 -0.5
          -1.3918299675 -0.029553499073 -0.5 -1.2034000158 0.121028997 -0.5
          -3.315500021 0.091922298074 0.5 -3.40102005 0.049610700458 0.26974400878
          -3.5796399117 -0.036828301847 0.30965799093 -3.349050045 -0.092123396695 0.5
          -3.315500021 0.091922298074 0.5 -3.5796399117 -0.036828301847 0.30965799093
          -3.5133900642 -0.13522699475 0.5 -3.349050045 -0.092123396695 0.5
          -3.595760107 0.14106500149 0.5 -3.5796399117 -0.036828301847 0.30965799093
          -3.5133900642 -0.13522699475 0.5 -3.315500021 0.091922298074 0.5
          -3.595760107 0.14106500149 0.5 -3.40102005 0.049610700458 0.26974400878
          -3.5796399117 -0.036828301847 0.30965799093 -3.315500021 0.091922298074 0.5
          -2.8274400234 0.051215600222 -0.3225030005 -3.0681700706 -0.022411899641 -0.31216698885
          -2.9389500618 -0.039363101125 -0.5 -2.9752700329 0.12661999464 -0.5
          -4.5181999207 0.028785899282 0.28230598569 -4.8052501678 -0.030253799632 0.27854898572
          -4.605700016 -0.14155100286 0.34099599719 -4.6742100716 -0.19076700509 0.15933300555
          -4.5181999207 0.028785899282 0.28230598569 -4.605700016 -0.14155100286 0.34099599719
          -4.3976202011 -0.16255900264 0.25912800431 -4.6742100716 -0.19076700509 0.15933300555
          -4.6742100716 -0.19076700509 0.15933300555 -4.5130600929 -0.32579600811 0.18804700673
          -4.605700016 -0.14155100286 0.34099599719 -4.3976202011 -0.16255900264 0.25912800431
          -4.5130600929 -0.32579600811 0.18804700673 -4.6742100716 -0.19076700509 0.15933300555
          -4.605700016 -0.14155100286 0.34099599719 -4.794549942 -0.32775598764 0.30355900526
          -4.5130600929 -0.32579600811 0.18804700673 -4.605700016 -0.14155100286 0.34099599719
          -4.5459198952 -0.24766799808 0.5 -4.794549942 -0.32775598764 0.30355900526
          -4.605700016 -0.14155100286 0.34099599719 -4.5130600929 -0.32579600811 0.18804700673
          -4.5459198952 -0.24766799808 0.5 -4.3976202011 -0.16255900264 0.25912800431
          -4.605700016 -0.14155100286 0.34099599719 -4.7226400375 0.0055706598796 0.5
          -4.8052501678 -0.030253799632 0.27854898572 -4.5181999207 0.028785899282 0.28230598569
          1.6601899862 0.29914501309 -0.0094896201044 1.7531599998 0.5 0.036465600133
          1.9183299541 0.30307900906 -0.11740200222 1.9609899521 0.27691298723 0.076514601707
          1.6601899862 0.29914501309 -0.0094896201044 1.7531599998 0.5 0.036465600133
          1.8845000267 0.5 -0.10376700014 1.9183299541 0.30307900906 -0.11740200222
          1.9609899521 0.27691298723 0.076514601707 2.0984899998 0.5 -0.030215999112
          1.9183299541 0.30307900906 -0.11740200222 2.2155299187 0.29384601116 -0.016047000885
          1.9609899521 0.27691298723 0.076514601707 1.9183299541 0.30307900906 -0.11740200222
          2.0588099957 0.16667899489 -0.072469100356 2.2155299187 0.29384601116 -0.016047000885
          1.9183299541 0.30307900906 -0.11740200222 1.9609899521 0.27691298723 0.076514601707
          2.0588099957 0.16667899489 -0.072469100356 1.9567300081 0.0023706499487 0.0081458101049
          2.0588099957 0.16667899489 -0.072469100356 1.9183299541 0.30307900906 -0.11740200222
          2.0216500759 0.22515000403 -0.27024498582 2.2155299187 0.29384601116 -0.016047000885
          1.9183299541 0.30307900906 -0.11740200222 2.2155299187 0.29384601116 -0.016047000885
          2.2007598877 0.32477998734 -0.29550099373 2.0216500759 0.22515000403 -0.27024498582
          1.9183299541 0.30307900906 -0.11740200222 2.2007598877 0.32477998734 -0.29550099373
          2.0364201069 0.5 -0.27101698518 2.0216500759 0.22515000403 -0.27024498582
          1.9183299541 0.30307900906 -0.11740200222 2.0216500759 0.22515000403 -0.27024498582
          2.0364201069 0.5 -0.27101698518 1.8882399797 0.5 -0.32798698545
          1.9183299541 0.30307900906 -0.11740200222 1.7617299557 0.19749200344 -0.18400299549
          2.0216500759 0.22515000403 -0.27024498582 1.8882399797 0.5 -0.32798698545
          1.9183299541 0.30307900906 -0.11740200222 1.7617299557 0.19749200344 -0.18400299549
          1.8882399797 0.5 -0.32798698545 1.6638499498 0.32388100028 -0.30573499203
          2.0984899998 0.5 -0.030215999112 2.2007598877 0.32477998734 -0.29550099373
          2.0364201069 0.5 -0.27101698518 1.9183299541 0.30307900906 -0.11740200222
          2.0984899998 0.5 -0.030215999112 2.2155299187 0.29384601116 -0.016047000885
          2.2007598877 0.32477998734 -0.29550099373 1.9183299541 0.30307900906 -0.11740200222
          -1.5232800245 0.099855400622 0.30515301228 -1.29381001 0.12503300607 0.31571400166
          -1.334980011 -0.066682696342 0.27562999725 -1.432109952 0.071380198002 0.5
          -1.29381001 0.12503300607 0.31571400166 -1.45697999 0.29096999764 0.5
          -1.432109952 0.071380198002 0.5 -1.5232800245 0.099855400622 0.30515301228
          -2.8269600868 0.33847901225 0.099728599191 -3.012720108 0.29143700004 0.30083501339
          -2.7599999905 0.5 0.28317898512 -2.8607199192 0.16806200147 0.1988620013
          -2.8269600868 0.33847901225 0.099728599191 -2.8607199192 0.16806200147 0.1988620013
          -2.7599999905 0.5 0.28317898512 -2.568860054 0.328433007 0.33221000433
          -2.8269600868 0.33847901225 0.099728599191 -3.0080699921 0.29238799214 0.028416100889
          -3.012720108 0.29143700004 0.30083501339 -2.8607199192 0.16806200147 0.1988620013
          -2.8269600868 0.33847901225 0.099728599191 -2.9498999119 0.5 -0.14169600606
          -3.0080699921 0.29238799214 0.028416100889 -2.8308598995 0.31636199355 -0.103422001
        </DataArray>
      </Points>
      <Cells>
        <DataArray type="Int64" Name="connectivity" format="ascii" RangeMin="0" RangeMax="21867">
          0 1 2 3 4 5
          6 7 8 9 10 11
          12 13 14 15 16 17
          18 19 20 21 22 23
          24 25 26 27 28 29
          30 31 32 33 34 35
          36 37 38 39 40 41
          42 43 44 45 46 47
          48 49 50 51 52 53
          54 55 56 57 58 59
          60 61 62 63 64 65
          66 67 68 69 70 71
          72 73 74 75 76 77
          78 79 80 81 82 83
          84 85 86 87 88 89
          90 91 92 93 94 95
          96 97 98 99 100 101
          102 103 104 105 106 107
          108 109 110 111 112 113
          114 115 116 117 118 119
          120 121 122 123 124 125
          126 127 128 129 130 131
          132 133 134 135 136 137
          138 139 140 141 142 143
          144 145 146 147 148 149
          150 151 152 153 154 155
          156 157 158 159 160 161
          162 163 164 165 166 167
          168 169 170 171 172 173
          174 175 176 177 178 179
          180 181 182 183 184 185
          186 187 188 189 190 191
          192 193 194 195 196 197
          198 199 200 201 202 203
          204 205 206 207 208 209
          210 211 212 213 214 215
          216 217 218 219 220 221
          222 223 224 225 226 227
          228 229 230 231 232 233
          234 235 236 237 238 239
          240 241 242 243 244 245
          246 247 248 249 250 251
          252 253 254 255 256 257
          258 259 260 261 262 263
          264 265 266 267 268 269
          270 271 272 273 274 275
          276 277 278 279 280 281
          282 283 284 285 286 287
          288 289 290 291 292 293
          294 295 296 297 298 299
          300 301 302 303 304 305
          306 307 308 309 310 311
          312 313 314 315 316 317
          318 319 320 321 322 323
          324 325 326 327 328 329
          330 331 332 333 334 335
          336 337 338 339 340 341
          342 343 344 345 346 347
          348 349 350 351 352 353
          354 355 356 357 358 359
          360 361 362 363 364 365
          366 367 368 369 370 371
          372 373 374 375 376 377
          378 379 380 381 382 383
          384 385 386 387 388 389
          390 391 392 393 394 395
          396 397 398 399 400 401
          402 403 404 405 406 407
          408 409 410 411 412 413
          414 415 416 417 418 419
          420 421 422 423 424 425
          426 427 428 429 430 431
          432 433 434 435 436 437
          438 439 440 441 442 443
          444 445 446 447 448 449
          450 451 452 453 454 455
          456 457 458 459 460 461
          462 463 464 465 466 467
          468 469 470 471 472 473
          474 475 476 477 478 479
          480 481 482 483 484 485
          486 487 488 489 490 491
          492 493 494 495 496 497
          498 499 500 501 502 503
          504 505 506 507 508 509
          510 511 512 513 514 515
          516 517 518 519 520 521
          522 523 524 525 526 527
          528 529 530 531 532 533
          534 535 536 537 538 539
          540 541 542 543 544 545
          546 547 548 549 550 551
          552 553 554 555 556 557
          558 559 560 561 562 563
          564 565 566 567 568 569
          570 571 572 573 574 575
          576 577 578 579 580 581
          582 583 584 585 586 587
          588 589 590 591 592 593
          594 595 596 597 598 599
          600 601 602 603 604 605
          606 607 608 609 610 611
          612 613 614 615 616 617
          618 619 620 621 622 623
          624 625 626 627 628 629
          630 631 632 633 634 635
          636 637 638 639 640 641
          642 643 644 645 646 647
          648 649 650 651 652 653
          654 655 656 657 658 659
          660 661 662 663 664 665
          666 667 668 669 670 671
          672 673 674 675 676 677
          678 679 680 681 682 683
          684 685 686 687 688 689
          690 691 692 693 694 695
          696 697 698 699 700 701
          702 703 704 705 706 707
          708 709 710 711 712 713
          714 715 716 717 718 719
          720 721 722 723 724 725
          726 727 728 729 730 731
          732 733 734 735 736 737
          738 739 740 741 742 743
          744 745 746 747 748 749
          750 751 752 753 754 755
          756 757 758 759 760 761
          762 763 764 765 766 767
          768 769 770 771 772 773
          774 775 776 777 778 779
          780 781 782 783 784 785
          786 787 788 789 790 791
          792 793 794 795 796 797
          798 799 800 801 802 803
          804 805 806 807 808 809
          810 811 812 813 814 815
          816 817 818 819 820 821
          822 823 824 825 826 827
          828 829 830 831 832 833
          834 835 836 837 838 839
          840 841 842 843 844 845
          846 847 848 849 850 851
          852 853 854 855 856 857
          858 859 860 861 862 863
          864 865 866 867 868 869
          870 871 872 873 874 875
          876 877 878 879 880 881
          882 883 884 885 886 887
          888 889 890 891 892 893
          894 895 896 897 898 899
          900 901 902 903 904 905
          906 907 908 909 910 911
          912 913 914 915 916 917
          918 919 920 921 922 923
          924 925 926 927 928 929
          930 931 932 933 934 935
          936 937 938 939 940 941
          942 943 944 945 946 947
          948 949 950 951 952 953
          954 955 956 957 958 959
          960 961 962 963 964 965
          966 967 968 969 970 971
          972 973 974 975 976 977
          978 979 980 981 982 983
          984 985 986 987 988 989
          990 991 992 993 994 995
          996 997 998 999 1000 1001
          1002 1003 1004 1005 1006 1007
          1008 1009 1010 1011 1012 1013
          1014 1015 1016 1017 1018 1019
          1020 1021 1022 1023 1024 1025
          1026 1027 1028 1029 1030 1031
          1032 1033 1034 1035 1036 1037
          1038 1039 1040 1041 1042 1043
          1044 1045 1046 1047 1048 1049
          1050 1051 1052 1053 1054 1055
          1056 1057 1058 1059 1060 1061
          1062 1063 1064 1065 1066 1067
          1068 1069 1070 1071 1072 1073
          1074 1075 1076 1077 1078 1079
          1080 1081 1082 1083 1084 1085
          1086 1087 1088 1089 1090 1091
          1092 1093 1094 1095 1096 1097
          1098 1099 1100 1101 1102 1103
          1104 1105 1106 1107 1108 1109
          1110 1111 1112 1113 1114 1115
          1116 1117 1118 1119 1120 1121
          1122 1123 1124 1125 1126 1127
          1128 1129 1130 1131 1132 1133
          1134 1135 1136 1137 1138 1139
          1140 1141 1142 1143 1144 1145
          1146 1147 1148 1149 1150 1151
          1152 1153 1154 1155 1156 1157
          1158 1159 1160 1161 1162 1163
          1164 1165 1166 1167 1168 1169
          1170 1171 1172 1173 1174 1175
          1176 1177 1178 1179 1180 1181
          1182 1183 1184 1185 1186 1187
          1188 1189 1190 1191 1192 1193
          1194 1195 1196 1197 1198 1199
          1200 1201 1202 1203 1204 1205
          1206 1207 1208 1209 1210 1211
          1212 1213 1214 1215 1216 1217
          1218 1219 1220 1221 1222 1223
          1224 1225 1226 1227 1228 1229
          1230 1231 1232 1233 1234 1235
          1236 1237 1238 1239 1240 1241
          1242 1243 1244 1245 1246 1247
          1248 1249 1250 1251 1252 1253
          1254 1255 1256 1257 1258 1259
          1260 1261 1262 1263 1264 1265
          1266 1267 1268 1269 1270 1271
          1272 1273 1274 1275 1276 1277
          1278 1279 1280 1281 1282 1283
          1284 1285 1286 1287 1288 1289
          1290 1291 1292 1293 1294 1295
          1296 1297 1298 1299 1300 1301
          1302 1303 1304 1305 1306 1307
          1308 1309 1310 1311 1312 1313
          1314 1315 1316 1317 1318 1319
          1320 1321 1322 1323 1324 1325
          1326 1327 1328 1329 1330 1331
          1332 1333 1334 1335 1336 1337
          1338 1339 1340 1341 1342 1343
          1344 1345 1346 1347 1348 1349
          1350 1351 1352 1353 1354 1355
          1356 1357 1358 1359 1360 1361
          1362 1363 1364 1365 1366 1367
          1368 1369 1370 1371 1372 1373
          1374 1375 1376 1377 1378 1379
          1380 1381 1382 1383 1384 1385
          1386 1387 1388 1389 1390 1391
          1392 1393 1394 1395 1396 1397
          1398 1399 1400 1401 1402 1403
          1404 1405 1406 1407 1408 1409
          1410 1411 1412 1413 1414 1415
          1416 1417 1418 1419 1420 1421
          1422 1423 1424 1425 1426 1427
          1428 1429 1430 1431 1432 1433
          1434 1435 1436 1437 1438 1439
          1440 1441 1442 1443 1444 1445
          1446 1447 1448 1449 1450 1451
          1452 1453 1454 1455 1456 1457
          1458 1459 1460 1461 1462 1463
          1464 1465 1466 1467 1468 1469
          1470 1471 1472 1473 1474 1475
          1476 1477 1478 1479 1480 1481
          1482 1483 1484 1485 1486 1487
          1488 1489 1490 1491 1492 1493
          1494 1495 1496 1497 1498 1499
          1500 1501 1502 1503 1504 1505
          1506 1507 1508 1509 1510 1511
          1512 1513 1514 1515 1516 1517
          1518 1519 1520 1521 1522 1523
          1524 1525 1526 1527 1528 1529
          1530 1531 1532 1533 1534 1535
          1536 1537 1538 1539 1540 1541
          1542 1543 1544 1545 1546 1547
          1548 1549 1550 1551 1552 1553
          1554 1555 1556 1557 1558 1559
          1560 1561 1562 1563 1564 1565
          1566 1567 1568 1569 1570 1571
          1572 1573 1574 1575 1576 1577
          1578 1579 1580 1581 1582 1583
          1584 1585 1586 1587 1588 1589
          1590 1591 1592 1593 1594 1595
          1596 1597 1598 1599 1600 1601
          1602 1603 1604 1605 1606 1607
          1608 1609 1610 1611 1612 1613
          1614 1615 1616 1617 1618 1619
          1620 1621 1622 1623 1624 1625
          1626 1627 1628 1629 1630 1631
          1632 1633 1634 1635 1636 1637
          1638 1639 1640 1641 1642 1643
          1644 1645 1646 1647 1648 1649
          1650 1651 1652 1653 1654 1655
          1656 1657 1658 1659 1660 1661
          1662 1663 1664 1665 1666 1667
          1668 1669 1670 1671 1672 1673
          1674 1675 1676 1677 1678 1679
          1680 1681 1682 1683 1684 1685
          1686 1687 1688 1689 1690 1691
          1692 1693 1694 1695 1696 1697
          1698 1699 1700 1701 1702 1703
          1704 1705 1706 1707 1708 1709
          1710 1711 1712 1713 1714 1715
          1716 1717 1718 1719 1720 1721
          1722 1723 1724 1725 1726 1727
          1728 1729 1730 1731 1732 1733
          1734 1735 1736 1737 1738 1739
          1740 1741 1742 1743 1744 1745
          1746 1747 1748 1749 1750 1751
          1752 1753 1754 1755 1756 1757
          1758 1759 1760 1761 1762 1763
          1764 1765 1766 1767 1768 1769
          1770 1771 1772 1773 1774 1775
          1776 1777 1778 1779 1780 1781
          1782 1783 1784 1785 1786 1787
          1788 1789 1790 1791 1792 1793
          1794 1795 1796 1797 1798 1799
          1800 1801 1802 1803 1804 1805
          1806 1807 1808 1809 1810 1811
          1812 1813 1814 1815 1816 1817
          1818 1819 1820 1821 1822 1823
          1824 1825 1826 1827 1828 1829
          1830 1831 1832 1833 1834 1835
          1836 1837 1838 1839 1840 1841
          1842 1843 1844 1845 1846 1847
          1848 1849 1850 1851 1852 1853
          1854 1855 1856 1857 1858 1859
          1860 1861 1862 1863 1864 1865
          1866 1867 1868 1869 1870 1871
          1872 1873 1874 1875 1876 1877
          1878 1879 1880 1881 1882 1883
          1884 1885 1886 1887 1888 1889
          1890 1891 1892 1893 1894 1895
          1896 1897 1898 1899 1900 1901
          1902 1903 1904 1905 1906 1907
          1908 1909 1910 1911 1912 1913
          1914 1915 1916 1917 1918 1919
          1920 1921 1922 1923 1924 1925
          1926 1927 1928 1929 1930 1931
          1932 1933 1934 1935 1936 1937
          1938 1939 1940 1941 1942 1943
          1944 1945 1946 1947 1948 1949
          1950 1951 1952 1953 1954 1955
          1956 1957 1958 1959 1960 1961
          1962 1963 1964 1965 1966 1967
          1968 1969 1970 1971 1972 1973
          1974 1975 1976 1977 1978 1979
          1980 1981 1982 1983 1984 1985
          1986 1987 1988 1989 1990 1991
          1992 1993 1994 1995 1996 1997
          1998 1999 2000 2001 2002 2003
          2004 2005 2006 2007 2008 2009
          2010 2011 2012 2013 2014 2015
          2016 2017 2018 2019 2020 2021
          2022 2023 2024 2025 2026 2027
          2028 2029 2030 2031 2032 2033
          2034 2035 2036 2037 2038 2039
          2040 2041 2042 2043 2044 2045
          2046 2047 2048 2049 2050 2051
          2052 2053 2054 2055 2056 2057
          2058 2059 2060 2061 2062 2063
          2064 2065 2066 2067 2068 2069
          2070 2071 2072 2073 2074 2075
          2076 2077 2078 2079 2080 2081
          2082 2083 2084 2085 2086 2087
          2088 2089 2090 2091 2092 2093
          2094 2095 2096 2097 2098 2099
          2100 2101 2102 2103 2104 2105
          2106 2107 2108 2109 2110 2111
          2112 2113 2114 2115 2116 2117
          2118 2119 2120 2121 2122 2123
          2124 2125 2126 2127 2128 2129
          2130 2131 2132 2133 2134 2135
          2136 2137 2138 2139 2140 2141
          2142 2143 2144 2145 2146 2147
          2148 2149 2150 2151 2152 2153
          2154 2155 2156 2157 2158 2159
          2160 2161 2162 2163 2164 2165
          2166 2167 2168 2169 2170 2171
          2172 2173 2174 2175 2176 2177
          2178 2179 2180 2181 2182 2183
          2184 2185 2186 2187 2188 2189
          2190 2191 2192 2193 2194 2195
          2196 2197 2198 2199 2200 2201
          2202 2203 2204 2205 2206 2207
          2208 2209 2210 2211 2212 2213
          2214 2215 2216 2217 2218 2219
          2220 2221 2222 2223 2224 2225
          2226 2227 2228 2229 2230 2231
          2232 2233 2234 2235 2236 2237
          2238 2239 2240 2241 2242 2243
          2244 2245 2246 2247 2248 2249
          2250 2251 2252 2253 2254 2255
          2256 2257 2258 2259 2260 2261
          2262 2263 2264 2265 2266 2267
          2268 2269 2270 2271 2272 2273
          2274 2275 2276 2277 2278 2279
          2280 2281 2282 2283 2284 2285
          2286 2287 2288 2289 2290 2291
          2292 2293 2294 2295 2296 2297
          2298 2299 2300 2301 2302 2303
          2304 2305 2306 2307 2308 2309
          2310 2311 2312 2313 2314 2315
          2316 2317 2318 2319 2320 2321
          2322 2323 2324 2325 2326 2327
          2328 2329 2330 2331 2332 2333
          2334 2335 2336 2337 2338 2339
          2340 2341 2342 2343 2344 2345
          2346 2347 2348 2349 2350 2351
          2352 2353 2354 2355 2356 2357
          2358 2359 2360 2361 2362 2363
          2364 2365 2366 2367 2368 2369
          2370 2371 2372 2373 2374 2375
          2376 2377 2378 2379 2380 2381
          2382 2383 2384 2385 2386 2387
          2388 2389 2390 2391 2392 2393
          2394 2395 2396 2397 2398 2399
          2400 2401 2402 2403 2404 2405
          2406 2407 2408 2409 2410 2411
          2412 2413 2414 2415 2416 2417
          2418 2419 2420 2421 2422 2423
          2424 2425 2426 2427 2428 2429
          2430 2431 2432 2433 2434 2435
          2436 2437 2438 2439 2440 2441
          2442 2443 2444 2445 2446 2447
          2448 2449 2450 2451 2452 2453
          2454 2455 2456 2457 2458 2459
          2460 2461 2462 2463 2464 2465
          2466 2467 2468 2469 2470 2471
          2472 2473 2474 2475 2476 2477
          2478 2479 2480 2481 2482 2483
          2484 2485 2486 2487 2488 2489
          2490 2491 2492 2493 2494 2495
          2496 2497 2498 2499 2500 2501
          2502 2503 2504 2505 2506 2507
          2508 2509 2510 2511 2512 2513
          2514 2515 2516 2517 2518 2519
          2520 2521 2522 2523 2524 2525
          2526 2527 2528 2529 2530 2531
          2532 2533 2534 2535 2536 2537
          2538 2539 2540 2541 2542 2543
          2544 2545 2546 2547 2548 2549
          2550 2551 2552 2553 2554 2555
          2556 2557 2558 2559 2560 2561
          2562 2563 2564 2565 2566 2567
          2568 2569 2570 2571 2572 2573
          2574 2575 2576 2577 2578 2579
          2580 2581 2582 2583 2584 2585
          2586 2587 2588 2589 2590 2591
          2592 2593 2594 2595 2596 2597
          2598 2599 2600 2601 2602 2603
          2604 2605 2606 2607 2608 2609
          2610 2611 2612 2613 2614 2615
          2616 2617 2618 2619 2620 2621
          2622 2623 2624 2625 2626 2627
          2628 2629 2630 2631 2632 2633
          2634 2635 2636 2637 2638 2639
          2640 2641 2642 2643 2644 2645
          2646 2647 2648 2649 2650 2651
          2652 2653 2654 2655 2656 2657
          2658 2659 2660 2661 2662 2663
          2664 2665 2666 2667 2668 2669
          2670 2671 2672 2673 2674 2675
          2676 2677 2678 2679 2680 2681
          2682 2683 2684 2685 2686 2687
          2688 2689 2690 2691 2692 2693
          2694 2695 2696 2697 2698 2699
          2700 2701 2702 2703 2704 2705
          2706 2707 2708 2709 2710 2711
          2712 2713 2714 2715 2716 2717
          2718 2719 2720 2721 2722 2723
          2724 2725 2726 2727 2728 2729
          2730 2731 2732 2733 2734 2735
          2736 2737 2738 2739 2740 2741
          2742 2743 2744 2745 2746 2747
          2748 2749 2750 2751 2752 2753
          2754 2755 2756 2757 2758 2759
          2760 2761 2762 2763 2764 2765
          2766 2767 2768 2769 2770 2771
          2772 2773 2774 2775 2776 2777
          2778 2779 2780 2781 2782 2783
          2784 2785 2786 2787 2788 2789
          2790 2791 2792 2793 2794 2795
          2796 2797 2798 2799 2800 2801
          2802 2803 2804 2805 2806 2807
          2808 2809 2810 2811 2812 2813
          2814 2815 2816 2817 2818 2819
          2820 2821 2822 2823 2824 2825
          2826 2827 2828 2829 2830 2831
          2832 2833 2834 2835 2836 2837
          2838 2839 2840 2841 2842 2843
          2844 2845 2846 2847 2848 2849
          2850 2851 2852 2853 2854 2855
          2856 2857 2858 2859 2860 2861
          2862 2863 2864 2865 2866 2867
          2868 2869 2870 2871 2872 2873
          2874 2875 2876 2877 2878 2879
          2880 2881 2882 2883 2884 2885
          2886 2887 2888 2889 2890 2891
          2892 2893 2894 2895 2896 2897
          2898 2899 2900 2901 2902 2903
          2904 2905 2906 2907 2908 2909
          2910 2911 2912 2913 2914 2915
          2916 2917 2918 2919 2920 2921
          2922 2923 2924 2925 2926 2927
          2928 2929 2930 2931 2932 2933
          2934 2935 2936 2937 2938 2939
          2940 2941 2942 2943 2944 2945
          2946 2947 2948 2949 2950 2951
          2952 2953 2954 2955 2956 2957
          2958 2959 2960 2961 2962 2963
          2964 2965 2966 2967 2968 2969
          2970 2971 2972 2973 2974 2975
          2976 2977 2978 2979 2980 2981
          2982 2983 2984 2985 2986 2987
          2988 2989 2990 2991 2992 2993
          2994 2995 2996 2997 2998 2999
          3000 3001 3002 3003 3004 3005
          3006 3007 3008 3009 3010 3011
          3012 3013 3014 3015 3016 3017
          3018 3019 3020 3021 3022 3023
          3024 3025 3026 3027 3028 3029
          3030 3031 3032 3033 3034 3035
          3036 3037 3038 3039 3040 3041
          3042 3043 3044 3045 3046 3047
          3048 3049 3050 3051 3052 3053
          3054 3055 3056 3057 3058 3059
          3060 3061 3062 3063 3064 3065
          3066 3067 3068 3069 3070 3071
          3072 3073 3074 3075 3076 3077
          3078 3079 3080 3081 3082 3083
          3084 3085 3086 3087 3088 3089
          3090 3091 3092 3093 3094 3095
          3096 3097 3098 3099 3100 3101
          3102 3103 3104 3105 3106 3107
          3108 3109 3110 3111 3112 3113
          3114 3115 3116 3117 3118 3119
          3120 3121 3122 3123 3124 3125
          3126 3127 3128 3129 3130 3131
          3132 3133 3134 3135 3136 3137
          3138 3139 3140 3141 3142 3143
          3144 3145 3146 3147 3148 3149
          3150 3151 3152 3153 3154 3155
          3156 3157 3158 3159 3160 3161
          3162 3163 3164 3165 3166 3167
          3168 3169 3170 3171 3172 3173
          3174 3175 3176 3177 3178 3179
          3180 3181 3182 3183 3184 3185
          3186 3187 3188 3189 3190 3191
          3192 3193 3194 3195 3196 3197
          3198 3199 3200 3201 3202 3203
          3204 3205 3206 3207 3208 3209
          3210 3211 3212 3213 3214 3215
          3216 3217 3218 3219 3220 3221
          3222 3223 3224 3225 3226 3227
          3228 3229 3230 3231 3232 3233
          3234 3235 3236 3237 3238 3239
          3240 3241 3242 3243 3244 3245
          3246 3247 3248 3249 3250 3251
          3252 3253 3254 3255 3256 3257
          3258 3259 3260 3261 3262 3263
          3264 3265 3266 3267 3268 3269
          3270 3271 3272 3273 3274 3275
          3276 3277 3278 3279 3280 3281
          3282 3283 3284 3285 3286 3287
          3288 3289 3290 3291 3292 3293
          3294 3295 3296 3297 3298 3299
          3300 3301 3302 3303 3304 3305
          3306 3307 3308 3309 3310 3311
          3312 3313 3314 3315 3316 3317
          3318 3319 3320 3321 3322 3323
          3324 3325 3326 3327 3328 3329
          3330 3331 3332 3333 3334 3335
          3336 3337 3338 3339 3340 3341
          3342 3343 3344 3345 3346 3347
          3348 3349 3350 3351 3352 3353
          3354 3355 3356 3357 3358 3359
          3360 3361 3362 3363 3364 3365
          3366 3367 3368 3369 3370 3371
          3372 3373 3374 3375 3376 3377
          3378 3379 3380 3381 3382 3383
          3384 3385 3386 3387 3388 3389
          3390 3391 3392 3393 3394 3395
          3396 3397 3398 3399 3400 3401
          3402 3403 3404 3405 3406 3407
          3408 3409 3410 3411 3412 3413
          3414 3415 3416 3417 3418 3419
          3420 3421 3422 3423 3424 3425
          3426 3427 3428 3429 3430 3431
          3432 3433 3434 3435 3436 3437
          3438 3439 3440 3441 3442 3443
          3444 3445 3446 3447 3448 3449
          3450 3451 3452 3453 3454 3455
          3456 3457 3458 3459 3460 3461
          3462 3463 3464 3465 3466 3467
          3468 3469 3470 3471 3472 3473
          3474 3475 3476 3477 3478 3479
          3480 3481 3482 3483 3484 3485
          3486 3487 3488 3489 3490 3491
          3492 3493 3494 3495 3496 3497
          3498 3499 3500 3501 3502 3503
          3504 3505 3506 3507 3508 3509
          3510 3511 3512 3513 3514 3515
          3516 3517 3518 3519 3520 3521
          3522 3523 3524 3525 3526 3527
          3528 3529 3530 3531 3532 3533
          3534 3535 3536 3537 3538 3539
          3540 3541 3542 3543 3544 3545
          3546 3547 3548 3549 3550 3551
          3552 3553 3554 3555 3556 3557
          3558 3559 3560 3561 3562 3563
          3564 3565 3566 3567 3568 3569
          3570 3571 3572 3573 3574 3575
          3576 3577 3578 3579 3580 3581
          3582 3583 3584 3585 3586 3587
          3588 3589 3590 3591 3592 3593
          3594 3595 3596 3597 3598 3599
          3600 3601 3602 3603 3604 3605
          3606 3607 3608 3609 3610 3611
          3612 3613 3614 3615 3616 3617
          3618 3619 3620 3621 3622 3623
          3624 3625 3626 3627 3628 3629
          3630 3631 3632 3633 3634 3635
          3636 3637 3638 3639 3640 3641
          3642 3643 3644 3645 3646 3647
          3648 3649 3650 3651 3652 3653
          3654 3655 3656 3657 3658 3659
          3660 3661 3662 3663 3664 3665
          3666 3667 3668 3669 3670 3671
          3672 3673 3674 3675 3676 3677
          3678 3679 3680 3681 3682 3683
          3684 3685 3686 3687 3688 3689
          3690 3691 3692 3693 3694 3695
          3696 3697 3698 3699 3700 3701
          3702 3703 3704 3705 3706 3707
          3708 3709 3710 3711 3712 3713
          3714 3715 3716 3717 3718 3719
          3720 3721 3722 3723 3724 3725
          3726 3727 3728 3729 3730 3731
          3732 3733 3734 3735 3736 3737
          3738 3739 3740 3741 3742 3743
          3744 3745 3746 3747 3748 3749
          3750 3751 3752 3753 3754 3755
          3756 3757 3758 3759 3760 3761
          3762 3763 3764 3765 3766 3767
          3768 3769 3770 3771 3772 3773
          3774 3775 3776 3777 3778 3779
          3780 3781 3782 3783 3784 3785
          3786 3787 3788 3789 3790 3791
          3792 3793 3794 3795 3796 3797
          3798 3799 3800 3801 3802 3803
          3804 3805 3806 3807 3808 3809
          3810 3811 3812 3813 3814 3815
          3816 3817 3818 3819 3820 3821
          3822 3823 3824 3825 3826 3827
          3828 3829 3830 3831 3832 3833
          3834 3835 3836 3837 3838 3839
          3840 3841 3842 3843 3844 3845
          3846 3847 3848 3849 3850 3851
          3852 3853 3854 3855 3856 3857
          3858 3859 3860 3861 3862 3863
          3864 3865 3866 3867 3868 3869
          3870 3871 3872 3873 3874 3875
          3876 3877 3878 3879 3880 3881
          3882 3883 3884 3885 3886 3887
          3888 3889 3890 3891 3892 3893
          3894 3895 3896 3897 3898 3899
          3900 3901 3902 3903 3904 3905
          3906 3907 3908 3909 3910 3911
          3912 3913 3914 3915 3916 3917
          3918 3919 3920 3921 3922 3923
          3924 3925 3926 3927 3928 3929
          3930 3931 3932 3933 3934 3935
          3936 3937 3938 3939 3940 3941
          3942 3943 3944 3945 3946 3947
          3948 3949 3950 3951 3952 3953
          3954 3955 3956 3957 3958 3959
          3960 3961 3962 3963 3964 3965
          3966 3967 3968 3969 3970 3971
          3972 3973 3974 3975 3976 3977
          3978 3979 3980 3981 3982 3983
          3984 3985 3986 3987 3988 3989
          3990 3991 3992 3993 3994 3995
          3996 3997 3998 3999 4000 4001
          4002 4003 4004 4005 4006 4007
          4008 4009 4010 4011 4012 4013
          4014 4015 4016 4017 4018 4019
          4020 4021 4022 4023 4024 4025
          4026 4027 4028 4029 4030 4031
          4032 4033 4034 4035 4036 4037
          4038 4039 4040 4041 4042 4043
          4044 4045 4046 4047 4048 4049
          4050 4051 4052 4053 4054 4055
          4056 4057 4058 4059 4060 4061
          4062 4063 4064 4065 4066 4067
          4068 4069 4070 4071 4072 4073
          4074 4075 4076 4077 4078 4079
          4080 4081 4082 4083 4084 4085
          4086 4087 4088 4089 4090 4091
          4092 4093 4094 4095 4096 4097
          4098 4099 4100 4101 4102 4103
          4104 4105 4106 4107 4108 4109
          4110 4111 4112 4113 4114 4115
          4116 4117 4118 4119 4120 4121
          4122 4123 4124 4125 4126 4127
          4128 4129 4130 4131 4132 4133
          4134 4135 4136 4137 4138 4139
          4140 4141 4142 4143 4144 4145
          4146 4147 4148 4149 4150 4151
          4152 4153 4154 4155 4156 4157
          4158 4159 4160 4161 4162 4163
          4164 4165 4166 4167 4168 4169
          4170 4171 4172 4173 4174 4175
          4176 4177 4178 4179 4180 4181
          4182 4183 4184 4185 4186 4187
          4188 4189 4190 4191 4192 4193
          4194 4195 4196 4197 4198 4199
          4200 4201 4202 4203 4204 4205
          4206 4207 4208 4209 4210 4211
          4212 4213 4214 4215 4216 4217
          4218 4219 4220 4221 4222 4223
          4224 4225 4226 4227 4228 4229
          4230 4231 4232 4233 4234 4235
          4236 4237 4238 4239 4240 4241
          4242 4243 4244 4245 4246 4247
          4248 4249 4250 4251 4252 4253
          4254 4255 4256 4257 4258 4259
          4260 4261 4262 4263 4264 4265
          4266 4267 4268 4269 4270 4271
          4272 4273 4274 4275 4276 4277
          4278 4279 4280 4281 4282 4283
          4284 4285 4286 4287 4288 4289
          4290 4291 4292 4293 4294 4295
          4296 4297 4298 4299 4300 4301
          4302 4303 4304 4305 4306 4307
          4308 4309 4310 4311 4312 4313
          4314 4315 4316 4317 4318 4319
          4320 4321 4322 4323 4324 4325
          4326 4327 4328 4329 4330 4331
          4332 4333 4334 4335 4336 4337
          4338 4339 4340 4341 4342 4343
          4344 4345 4346 4347 4348 4349
          4350 4351 4352 4353 4354 4355
          4356 4357 4358 4359 4360 4361
          4362 4363 4364 4365 4366 4367
          4368 4369 4370 4371 4372 4373
          4374 4375 4376 4377 4378 4379
          4380 4381 4382 4383 4384 4385
          4386 4387 4388 4389 4390 4391
          4392 4393 4394 4395 4396 4397
          4398 4399 4400 4401 4402 4403
          4404 4405 4406 4407 4408 4409
          4410 4411 4412 4413 4414 4415
          4416 4417 4418 4419 4420 4421
          4422 4423 4424 4425 4426 4427
          4428 4429 4430 4431 4432 4433
          4434 4435 4436 4437 4438 4439
          4440 4441 4442 4443 4444 4445
          4446 4447 4448 4449 4450 4451
          4452 4453 4454 4455 4456 4457
          4458 4459 4460 4461 4462 4463
          4464 4465 4466 4467 4468 4469
          4470 4471 4472 4473 4474 4475
          4476 4477 4478 4479 4480 4481
          4482 4483 4484 4485 4486 4487
          4488 4489 4490 4491 4492 4493
          4494 4495 4496 4497 4498 4499
          4500 4501 4502 4503 4504 4505
          4506 4507 4508 4509 4510 4511
          4512 4513 4514 4515 4516 4517
          4518 4519 4520 4521 4522 4523
          4524 4525 4526 4527 4528 4529
          4530 4531 4532 4533 4534 4535
          4536 4537 4538 4539 4540 4541
          4542 4543 4544 4545 4546 4547
          4548 4549 4550 4551 4552 4553
          4554 4555 4556 4557 4558 4559
          4560 4561 4562 4563 4564 4565
          4566 4567 4568 4569 4570 4571
          4572 4573 4574 4575 4576 4577
          4578 4579 4580 4581 4582 4583
          4584 4585 4586 4587 4588 4589
          4590 4591 4592 4593 4594 4595
          4596 4597 4598 4599 4600 4601
          4602 4603 4604 4605 4606 4607
          4608 4609 4610 4611 4612 4613
          4614 4615 4616 4617 4618 4619
          4620 4621 4622 4623 4624 4625
          4626 4627 4628 4629 4630 4631
          4632 4633 4634 4635 4636 4637
          4638 4639 4640 4641 4642 4643
          4644 4645 4646 4647 4648 4649
          4650 4651 4652 4653 4654 4655
          4656 4657 4658 4659 4660 4661
          4662 4663 4664 4665 4666 4667
          4668 4669 4670 4671 4672 4673
          4674 4675 4676 4677 4678 4679
          4680 4681 4682 4683 4684 4685
          4686 4687 4688 4689 4690 4691
          4692 4693 4694 4695 4696 4697
          4698 4699 4700 4701 4702 4703
          4704 4705 4706 4707 4708 4709
          4710 4711 4712 4713 4714 4715
          4716 4717 4718 4719 4720 4721
          4722 4723 4724 4725 4726 4727
          4728 4729 4730 4731 4732 4733
          4734 4735 4736 4737 4738 4739
          4740 4741 4742 4743 4744 4745
          4746 4747 4748 4749 4750 4751
          4752 4753 4754 4755 4756 4757
          4758 4759 4760 4761 4762 4763
          4764 4765 4766 4767 4768 4769
          4770 4771 4772 4773 4774 4775
          4776 4777 4778 4779 4780 4781
          4782 4783 4784 4785 4786 4787
          4788 4789 4790 4791 4792 4793
          4794 4795 4796 4797 4798 4799
          4800 4801 4802 4803 4804 4805
          4806 4807 4808 4809 4810 4811
          4812 4813 4814 4815 4816 4817
          4818 4819 4820 4821 4822 4823
          4824 4825 4826 4827 4828 4829
          4830 4831 4832 4833 4834 4835
          4836 4837 4838 4839 4840 4841
          4842 4843 4844 4845 4846 4847
          4848 4849 4850 4851 4852 4853
          4854 4855 4856 4857 4858 4859
          4860 4861 4862 4863 4864 4865
          4866 4867 4868 4869 4870 4871
          4872 4873 4874 4875 4876 4877
          4878 4879 4880 4881 4882 4883
          4884 4885 4886 4887 4888 4889
          4890 4891 4892 4893 4894 4895
          4896 4897 4898 4899 4900 4901
          4902 4903 4904 4905 4906 4907
          4908 4909 4910 4911 4912 4913
          4914 4915 4916 4917 4918 4919
          4920 4921 4922 4923 4924 4925
          4926 4927 4928 4929 4930 4931
          4932 4933 4934 4935 4936 4937
          4938 4939 4940 4941 4942 4943
          4944 4945 4946 4947 4948 4949
          4950 4951 4952 4953 4954 4955
          4956 4957 4958 4959 4960 4961
          4962 4963 4964 4965 4966 4967
          4968 4969 4970 4971 4972 4973
          4974 4975 4976 4977 4978 4979
          4980 4981 4982 4983 4984 4985
          4986 4987 4988 4989 4990 4991
          4992 4993 4994 4995 4996 4997
          4998 4999 5000 5001 5002 5003
          5004 5005 5006 5007 5008 5009
          5010 5011 5012 5013 5014 5015
          5016 5017 5018 5019 5020 5021
          5022 5023 5024 5025 5026 5027
          5028 5029 5030 5031 5032 5033
          5034 5035 5036 5037 5038 5039
          5040 5041 5042 5043 5044 5045
          5046 5047 5048 5049 5050 5051
          5052 5053 5054 5055 5056 5057
          5058 5059 5060 5061 5062 5063
          5064 5065 5066 5067 5068 5069
          5070 5071 5072 5073 5074 5075
          5076 5077 5078 5079 5080 5081
          5082 5083 5084 5085 5086 5087
          5088 5089 5090 5091 5092 5093
          5094 5095 5096 5097 5098 5099
          5100 5101 5102 5103 5104 5105
          5106 5107 5108 5109 5110 5111
          5112 5113 5114 5115 5116 5117
          5118 5119 5120 5121 5122 5123
          5124 5125 5126 5127 5128 5129
          5130 5131 5132 5133 5134 5135
          5136 5137 5138 5139 5140 5141
          5142 5143 5144 5145 5146 5147
          5148 5149 5150 5151 5152 5153
          5154 5155 5156 5157 5158 5159
          5160 5161 5162 5163 5164 5165
          5166 5167 5168 5169 5170 5171
          5172 5173 5174 5175 5176 5177
          5178 5179 5180 5181 5182 5183
          5184 5185 5186 5187 5188 5189
          5190 5191 5192 5193 5194 5195
          5196 5197 5198 5199 5200 5201
          5202 5203 5204 5205 5206 5207
          5208 5209 5210 5211 5212 5213
          5214 5215 5216 5217 5218 5219
          5220 5221 5222 5223 5224 5225
          5226 5227 5228 5229 5230 5231
          5232 5233 5234 5235 5236 5237
          5238 5239 5240 5241 5242 5243
          5244 5245 5246 5247 5248 5249
          5250 5251 5252 5253 5254 5255
          5256 5257 5258 5259 5260 5261
          5262 5263 5264 5265 5266 5267
          5268 5269 5270 5271 5272 5273
          5274 5275 5276 5277 5278 5279
          5280 5281 5282 5283 5284 5285
          5286 5287 5288 5289 5290 5291
          5292 5293 5294 5295 5296 5297
          5298 5299 5300 5301 5302 5303
          5304 5305 5306 5307 5308 5309
          5310 5311 5312 5313 5314 5315
          5316 5317 5318 5319 5320 5321
          5322 5323 5324 5325 5326 5327
          5328 5329 5330 5331 5332 5333
          5334 5335 5336 5337 5338 5339
          5340 5341 5342 5343 5344 5345
          5346 5347 5348 5349 5350 5351
          5352 5353 5354 5355 5356 5357
          5358 5359 5360 5361 5362 5363
          5364 5365 5366 5367 5368 5369
          5370 5371 5372 5373 5374 5375
          5376 5377 5378 5379 5380 5381
          5382 5383 5384 5385 5386 5387
          5388 5389 5390 5391 5392 5393
          5394 5395 5396 5397 5398 5399
          5400 5401 5402 5403 5404 5405
          5406 5407 5408 5409 5410 5411
          5412 5413 5414 5415 5416 5417
          5418 5419 5420 5421 5422 5423
          5424 5425 5426 5427 5428 5429
          5430 5431 5432 5433 5434 5435
          5436 5437 5438 5439 5440 5441
          5442 5443 5444 5445 5446 5447
          5448 5449 5450 5451 5452 5453
          5454 5455 5456 5457 5458 5459
          5460 5461 5462 5463 5464 5465
          5466 5467 5468 5469 5470 5471
          5472 5473 5474 5475 5476 5477
          5478 5479 5480 5481 5482 5483
          5484 5485 5486 5487 5488 5489
          5490 5491 5492 5493 5494 5495
          5496 5497 5498 5499 5500 5501
          5502 5503 5504 5505 5506 5507
          5508 5509 5510 5511 5512 5513
          5514 5515 5516 5517 5518 5519
          5520 5521 5522 5523 5524 5525
          5526 5527 5528 5529 5530 5531
          5532 5533 5534 5535 5536 5537
          5538 5539 5540 5541 5542 5543
          5544 5545 5546 5547 5548 5549
          5550 5551 5552 5553 5554 5555
          5556 5557 5558 5559 5560 5561
          5562 5563 5564 5565 5566 5567
          5568 5569 5570 5571 5572 5573
          5574 5575 5576 5577 5578 5579
          5580 5581 5582 5583 5584 5585
          5586 5587 5588 5589 5590 5591
          5592 5593 5594 5595 5596 5597
          5598 5599 5600 5601 5602 5603
          5604 5605 5606 5607 5608 5609
          5610 5611 5612 5613 5614 5615
          5616 5617 5618 5619 5620 5621
          5622 5623 5624 5625 5626 5627
          5628 5629 5630 5631 5632 5633
          5634 5635 5636 5637 5638 5639
          5640 5641 5642 5643 5644 5645
          5646 5647 5648 5649 5650 5651
          5652 5653 5654 5655 5656 5657
          5658 5659 5660 5661 5662 5663
          5664 5665 5666 5667 5668 5669
          5670 5671 5672 5673 5674 5675
          5676 5677 5678 5679 5680 5681
          5682 5683 5684 5685 5686 5687
          5688 5689 5690 5691 5692 5693
          5694 5695 5696 5697 5698 5699
          5700 5701 5702 5703 5704 5705
          5706 5707 5708 5709 5710 5711
          5712 5713 5714 5715 5716 5717
          5718 5719 5720 5721 5722 5723
          5724 5725 5726 5727 5728 5729
          5730 5731 5732 5733 5734 5735
          5736 5737 5738 5739 5740 5741
          5742 5743 5744 5745 5746 5747
          5748 5749 5750 5751 5752 5753
          5754 5755 5756 5757 5758 5759
          5760 5761 5762 5763 5764 5765
          5766 5767 5768 5769 5770 5771
          5772 5773 5774 5775 5776 5777
          5778 5779 5780 5781 5782 5783
          5784 5785 5786 5787 5788 5789
          5790 5791 5792 5793 5794 5795
          5796 5797 5798 5799 5800 5801
          5802 5803 5804 5805 5806 5807
          5808 5809 5810 5811 5812 5813
          5814 5815 5816 5817 5818 5819
          5820 5821 5822 5823 5824 5825
          5826 5827 5828 5829 5830 5831
          5832 5833 5834 5835 5836 5837
          5838 5839 5840 5841 5842 5843
          5844 5845 5846 5847 5848 5849
          5850 5851 5852 5853 5854 5855
          5856 5857 5858 5859 5860 5861
          5862 5863 5864 5865 5866 5867
          5868 5869 5870 5871 5872 5873
          5874 5875 5876 5877 5878 5879
          5880 5881 5882 5883 5884 5885
          5886 5887 5888 5889 5890 5891
          5892 5893 5894 5895 5896 5897
          5898 5899 5900 5901 5902 5903
          5904 5905 5906 5907 5908 5909
          5910 5911 5912 5913 5914 5915
          5916 5917 5918 5919 5920 5921
          5922 5923 5924 5925 5926 5927
          5928 5929 5930 5931 5932 5933
          5934 5935 5936 5937 5938 5939
          5940 5941 5942 5943 5944 5945
          5946 5947 5948 5949 5950 5951
          5952 5953 5954 5955 5956 5957
          5958 5959 5960 5961 5962 5963
          5964 5965 5966 5967 5968 5969
          5970 5971 5972 5973 5974 5975
          5976 5977 5978 5979 5980 5981
          5982 5983 5984 5985 5986 5987
          5988 5989 5990 5991 5992 5993
          5994 5995 5996 5997 5998 5999
          6000 6001 6002 6003 6004 6005
          6006 6007 6008 6009 6010 6011
          6012 6013 6014 6015 6016 6017
          6018 6019 6020 6021 6022 6023
          6024 6025 6026 6027 6028 6029
          6030 6031 6032 6033 6034 6035
          6036 6037 6038 6039 6040 6041
          6042 6043 6044 6045 6046 6047
          6048 6049 6050 6051 6052 6053
          6054 6055 6056 6057 6058 6059
          6060 6061 6062 6063 6064 6065
          6066 6067 6068 6069 6070 6071
          6072 6073 6074 6075 6076 6077
          6078 6079 6080 6081 6082 6083
          6084 6085 6086 6087 6088 6089
          6090 6091 6092 6093 6094 6095
          6096 6097 6098 6099 6100 6101
          6102 6103 6104 6105 6106 6107
          6108 6109 6110 6111 6112 6113
          6114 6115 6116 6117 6118 6119
          6120 6121 6122 6123 6124 6125
          6126 6127 6128 6129 6130 6131
          6132 6133 6134 6135 6136 6137
          6138 6139 6140 6141 6142 6143
          6144 6145 6146 6147 6148 6149
          6150 6151 6152 6153 6154 6155
          6156 6157 6158 6159 6160 6161
          6162 6163 6164 6165 6166 6167
          6168 6169 6170 6171 6172 6173
          6174 6175 6176 6177 6178 6179
          6180 6181 6182 6183 6184 6185
          6186 6187 6188 6189 6190 6191
          6192 6193 6194 6195 6196 6197
          6198 6199 6200 6201 6202 6203
          6204 6205 6206 6207 6208 6209
          6210 6211 6212 6213 6214 6215
          6216 6217 6218 6219 6220 6221
          6222 6223 6224 6225 6226 6227
          6228 6229 6230 6231 6232 6233
          6234 6235 6236 6237 6238 6239
          6240 6241 6242 6243 6244 6245
          6246 6247 6248 6249 6250 6251
          6252 6253 6254 6255 6256 6257
          6258 6259 6260 6261 6262 6263
          6264 6265 6266 6267 6268 6269
          6270 6271 6272 6273 6274 6275
          6276 6277 6278 6279 6280 6281
          6282 6283 6284 6285 6286 6287
          6288 6289 6290 6291 6292 6293
          6294 6295 6296 6297 6298 6299
          6300 6301 6302 6303 6304 6305
          6306 6307 6308 6309 6310 6311
          6312 6313 6314 6315 6316 6317
          6318 6319 6320 6321 6322 6323
          6324 6325 6326 6327 6328 6329
          6330 6331 6332 6333 6334 6335
          6336 6337 6338 6339 6340 6341
          6342 6343 6344 6345 6346 6347
          6348 6349 6350 6351 6352 6353
          6354 6355 6356 6357 6358 6359
          6360 6361 6362 6363 6364 6365
          6366 6367 6368 6369 6370 6371
          6372 6373 6374 6375 6376 6377
          6378 6379 6380 6381 6382 6383
          6384 6385 6386 6387 6388 6389
          6390 6391 6392 6393 6394 6395
          6396 6397 6398 6399 6400 6401
          6402 6403 6404 6405 6406 6407
          6408 6409 6410 6411 6412 6413
          6414 6415 6416 6417 6418 6419
          6420 6421 6422 6423 6424 6425
          6426 6427 6428 6429 6430 6431
          6432 6433 6434 6435 6436 6437
          6438 6439 6440 6441 6442 6443
          6444 6445 6446 6447 6448 6449
          6450 6451 6452 6453 6454 6455
          6456 6457 6458 6459 6460 6461
          6462 6463 6464 6465 6466 6467
          6468 6469 6470 6471 6472 6473
          6474 6475 6476 6477 6478 6479
          6480 6481 6482 6483 6484 6485
          6486 6487 6488 6489 6490 6491
          6492 6493 6494 6495 6496 6497
          6498 6499 6500 6501 6502 6503
          6504 6505 6506 6507 6508 6509
          6510 6511 6512 6513 6514 6515
          6516 6517 6518 6519 6520 6521
          6522 6523 6524 6525 6526 6527
          6528 6529 6530 6531 6532 6533
          6534 6535 6536 6537 6538 6539
          6540 6541 6542 6543 6544 6545
          6546 6547 6548 6549 6550 6551
          6552 6553 6554 6555 6556 6557
          6558 6559 6560 6561 6562 6563
          6564 6565 6566 6567 6568 6569
          6570 6571 6572 6573 6574 6575
          6576 6577 6578 6579 6580 6581
          6582 6583 6584 6585 6586 6587
          6588 6589 6590 6591 6592 6593
          6594 6595 6596 6597 6598 6599
          6600 6601 6602 6603 6604 6605
          6606 6607 6608 6609 6610 6611
          6612 6613 6614 6615 6616 6617
          6618 6619 6620 6621 6622 6623
          6624 6625 6626 6627 6628 6629
          6630 6631 6632 6633 6634 6635
          6636 6637 6638 6639 6640 6641
          6642 6643 6644 6645 6646 6647
          6648 6649 6650 6651 6652 6653
          6654 6655 6656 6657 6658 6659
          6660 6661 6662 6663 6664 6665
          6666 6667 6668 6669 6670 6671
          6672 6673 6674 6675 6676 6677
          6678 6679 6680 6681 6682 6683
          6684 6685 6686 6687 6688 6689
          6690 6691 6692 6693 6694 6695
          6696 6697 6698 6699 6700 6701
          6702 6703 6704 6705 6706 6707
          6708 6709 6710 6711 6712 6713
          6714 6715 6716 6717 6718 6719
          6720 6721 6722 6723 6724 6725
          6726 6727 6728 6729 6730 6731
          6732 6733 6734 6735 6736 6737
          6738 6739 6740 6741 6742 6743
          6744 6745 6746 6747 6748 6749
          6750 6751 6752 6753 6754 6755
          6756 6757 6758 6759 6760 6761
          6762 6763 6764 6765 6766 6767
          6768 6769 6770 6771 6772 6773
          6774 6775 6776 6777 6778 6779
          6780 6781 6782 6783 6784 6785
          6786 6787 6788 6789 6790 6791
          6792 6793 6794 6795 6796 6797
          6798 6799 6800 6801 6802 6803
          6804 6805 6806 6807 6808 6809
          6810 6811 6812 6813 6814 6815
          6816 6817 6818 6819 6820 6821
          6822 6823 6824 6825 6826 6827
          6828 6829 6830 6831 6832 6833
          6834 6835 6836 6837 6838 6839
          6840 6841 6842 6843 6844 6845
          6846 6847 6848 6849 6850 6851
          6852 6853 6854 6855 6856 6857
          6858 6859 6860 6861 6862 6863
          6864 6865 6866 6867 6868 6869
          6870 6871 6872 6873 6874 6875
          6876 6877 6878 6879 6880 6881
          6882 6883 6884 6885 6886 6887
          6888 6889 6890 6891 6892 6893
          6894 6895 6896 6897 6898 6899
          6900 6901 6902 6903 6904 6905
          6906 6907 6908 6909 6910 6911
          6912 6913 6914 6915 6916 6917
          6918 6919 6920 6921 6922 6923
          6924 6925 6926 6927 6928 6929
          6930 6931 6932 6933 6934 6935
          6936 6937 6938 6939 6940 6941
          6942 6943 6944 6945 6946 6947
          6948 6949 6950 6951 6952 6953
          6954 6955 6956 6957 6958 6959
          6960 6961 6962 6963 6964 6965
          6966 6967 6968 6969 6970 6971
          6972 6973 6974 6975 6976 6977
          6978 6979 6980 6981 6982 6983
          6984 6985 6986 6987 6988 6989
          6990 6991 6992 6993 6994 6995
          6996 6997 6998 6999 7000 7001
          7002 7003 7004 7005 7006 7007
          7008 7009 7010 7011 7012 7013
          7014 7015 7016 7017 7018 7019
          7020 7021 7022 7023 7024 7025
          7026 7027 7028 7029 7030 7031
          7032 7033 7034 7035 7036 7037
          7038 7039 7040 7041 7042 7043
          7044 7045 7046 7047 7048 7049
          7050 7051 7052 7053 7054 7055
          7056 7057 7058 7059 7060 7061
          7062 7063 7064 7065 7066 7067
          7068 7069 7070 7071 7072 7073
          7074 7075 7076 7077 7078 7079
          7080 7081 7082 7083 7084 7085
          7086 7087 7088 7089 7090 7091
          7092 7093 7094 7095 7096 7097
          7098 7099 7100 7101 7102 7103
          7104 7105 7106 7107 7108 7109
          7110 7111 7112 7113 7114 7115
          7116 7117 7118 7119 7120 7121
          7122 7123 7124 7125 7126 7127
          7128 7129 7130 7131 7132 7133
          7134 7135 7136 7137 7138 7139
          7140 7141 7142 7143 7144 7145
          7146 7147 7148 7149 7150 7151
          7152 7153 7154 7155 7156 7157
          7158 7159 7160 7161 7162 7163
          7164 7165 7166 7167 7168 7169
          7170 7171 7172 7173 7174 7175
          7176 7177 7178 7179 7180 7181
          7182 7183 7184 7185 7186 7187
          7188 7189 7190 7191 7192 7193
          7194 7195 7196 7197 7198 7199
          7200 7201 7202 7203 7204 7205
          7206 7207 7208 7209 7210 7211
          7212 7213 7214 7215 7216 7217
          7218 7219 7220 7221 7222 7223
          7224 7225 7226 7227 7228 7229
          7230 7231 7232 7233 7234 7235
          7236 7237 7238 7239 7240 7241
          7242 7243 7244 7245 7246 7247
          7248 7249 7250 7251 7252 7253
          7254 7255 7256 7257 7258 7259
          7260 7261 7262 7263 7264 7265
          7266 7267 7268 7269 7270 7271
          7272 7273 7274 7275 7276 7277
          7278 7279 7280 7281 7282 7283
          7284 7285 7286 7287 7288 7289
          7290 7291 7292 7293 7294 7295
          7296 7297 7298 7299 7300 7301
          7302 7303 7304 7305 7306 7307
          7308 7309 7310 7311 7312 7313
          7314 7315 7316 7317 7318 7319
          7320 7321 7322 7323 7324 7325
          7326 7327 7328 7329 7330 7331
          7332 7333 7334 7335 7336 7337
          7338 7339 7340 7341 7342 7343
          7344 7345 7346 7347 7348 7349
          7350 7351 7352 7353 7354 7355
          7356 7357 7358 7359 7360 7361
          7362 7363 7364 7365 7366 7367
          7368 7369 7370 7371 7372 7373
          7374 7375 7376 7377 7378 7379
          7380 7381 7382 7383 7384 7385
          7386 7387 7388 7389 7390 7391
          7392 7393 7394 7395 7396 7397
          7398 7399 7400 7401 7402 7403
          7404 7405 7406 7407 7408 7409
          7410 7411 7412 7413 7414 7415
          7416 7417 7418 7419 7420 7421
          7422 7423 7424 7425 7426 7427
          7428 7429 7430 7431 7432 7433
          7434 7435 7436 7437 7438 7439
          7440 7441 7442 7443 7444 7445
          7446 7447 7448 7449 7450 7451
          7452 7453 7454 7455 7456 7457
          7458 7459 7460 7461 7462 7463
          7464 7465 7466 7467 7468 7469
          7470 7471 7472 7473 7474 7475
          7476 7477 7478 7479 7480 7481
          7482 7483 7484 7485 7486 7487
          7488 7489 7490 7491 7492 7493
          7494 7495 7496 7497 7498 7499
          7500 7501 7502 7503 7504 7505
          7506 7507 7508 7509 7510 7511
          7512 7513 7514 7515 7516 7517
          7518 7519 7520 7521 7522 7523
          7524 7525 7526 7527 7528 7529
          7530 7531 7532 7533 7534 7535
          7536 7537 7538 7539 7540 7541
          7542 7543 7544 7545 7546 7547
          7548 7549 7550 7551 7552 7553
          7554 7555 7556 7557 7558 7559
          7560 7561 7562 7563 7564 7565
          7566 7567 7568 7569 7570 7571
          7572 7573 7574 7575 7576 7577
          7578 7579 7580 7581 7582 7583
          7584 7585 7586 7587 7588 7589
          7590 7591 7592 7593 7594 7595
          7596 7597 7598 7599 7600 7601
          7602 7603 7604 7605 7606 7607
          7608 7609 7610 7611 7612 7613
          7614 7615 7616 7617 7618 7619
          7620 7621 7622 7623 7624 7625
          7626 7627 7628 7629 7630 7631
          7632 7633 7634 7635 7636 7637
          7638 7639 7640 7641 7642 7643
          7644 7645 7646 7647 7648 7649
          7650 7651 7652 7653 7654 7655
          7656 7657 7658 7659 7660 7661
          7662 7663 7664 7665 7666 7667
          7668 7669 7670 7671 7672 7673
          7674 7675 7676 7677 7678 7679
          7680 7681 7682 7683 7684 7685
          7686 7687 7688 7689 7690 7691
          7692 7693 7694 7695 7696 7697
          7698 7699 7700 7701 7702 7703
          7704 7705 7706 7707 7708 7709
          7710 7711 7712 7713 7714 7715
          7716 7717 7718 7719 7720 7721
          7722 7723 7724 7725 7726 7727
          7728 7729 7730 7731 7732 7733
          7734 7735 7736 7737 7738 7739
          7740 7741 7742 7743 7744 7745
          7746 7747 7748 7749 7750 7751
          7752 7753 7754 7755 7756 7757
          7758 7759 7760 7761 7762 7763
          7764 7765 7766 7767 7768 7769
          7770 7771 7772 7773 7774 7775
          7776 7777 7778 7779 7780 7781
          7782 7783 7784 7785 7786 7787
          7788 7789 7790 7791 7792 7793
          7794 7795 7796 7797 7798 7799
          7800 7801 7802 7803 7804 7805
          7806 7807 7808 7809 7810 7811
          7812 7813 7814 7815 7816 7817
          7818 7819 7820 7821 7822 7823
          7824 7825 7826 7827 7828 7829
          7830 7831 7832 7833 7834 7835
          7836 7837 7838 7839 7840 7841
          7842 7843 7844 7845 7846 7847
          7848 7849 7850 7851 7852 7853
          7854 7855 7856 7857 7858 7859
          7860 7861 7862 7863 7864 7865
          7866 7867 7868 7869 7870 7871
          7872 7873 7874 7875 7876 7877
          7878 7879 7880 7881 7882 7883
          7884 7885 7886 7887 7888 7889
          7890 7891 7892 7893 7894 7895
          7896 7897 7898 7899 7900 7901
          7902 7903 7904 7905 7906 7907
          7908 7909 7910 7911 7912 7913
          7914 7915 7916 7917 7918 7919
          7920 7921 7922 7923 7924 7925
          7926 7927 7928 7929 7930 7931
          7932 7933 7934 7935 7936 7937
          7938 7939 7940 7941 7942 7943
          7944 7945 7946 7947 7948 7949
          7950 7951 7952 7953 7954 7955
          7956 7957 7958 7959 7960 7961
          7962 7963 7964 7965 7966 7967
          7968 7969 7970 7971 7972 7973
          7974 7975 7976 7977 7978 7979
          7980 7981 7982 7983 7984 7985
          7986 7987 7988 7989 7990 7991
          7992 7993 7994 7995 7996 7997
          7998 7999 8000 8001 8002 8003
          8004 8005 8006 8007 8008 8009
          8010 8011 8012 8013 8014 8015
          8016 8017 8018 8019 8020 8021
          8022 8023 8024 8025 8026 8027
          8028 8029 8030 8031 8032 8033
          8034 8035 8036 8037 8038 8039
          8040 8041 8042 8043 8044 8045
          8046 8047 8048 8049 8050 8051
          8052 8053 8054 8055 8056 8057
          8058 8059 8060 8061 8062 8063
          8064 8065 8066 8067 8068 8069
          8070 8071 8072 8073 8074 8075
          8076 8077 8078 8079 8080 8081
          8082 8083 8084 8085 8086 8087
          8088 8089 8090 8091 8092 8093
          8094 8095 8096 8097 8098 8099
          8100 8101 8102 8103 8104 8105
          8106 8107 8108 8109 8110 8111
          8112 8113 8114 8115 8116 8117
          8118 8119 8120 8121 8122 8123
          8124 8125 8126 8127 8128 8129
          8130 8131 8132 8133 8134 8135
          8136 8137 8138 8139 8140 8141
          8142 8143 8144 8145 8146 8147
          8148 8149 8150 8151 8152 8153
          8154 8155 8156 8157 8158 8159
          8160 8161 8162 8163 8164 8165
          8166 8167 8168 8169 8170 8171
          8172 8173 8174 8175 8176 8177
          8178 8179 8180 8181 8182 8183
          8184 8185 8186 8187 8188 8189
          8190 8191 8192 8193 8194 8195
          8196 8197 8198 8199 8200 8201
          8202 8203 8204 8205 8206 8207
          8208 8209 8210 8211 8212 8213
          8214 8215 8216 8217 8218 8219
          8220 8221 8222 8223 8224 8225
          8226 8227 8228 8229 8230 8231
          8232 8233 8234 8235 8236 8237
          8238 8239 8240 8241 8242 8243
          8244 8245 8246 8247 8248 8249
          8250 8251 8252 8253 8254 8255
          8256 8257 8258 8259 8260 8261
          8262 8263 8264 8265 8266 8267
          8268 8269 8270 8271 8272 8273
          8274 8275 8276 8277 8278 8279
          8280 8281 8282 8283 8284 8285
          8286 8287 8288 8289 8290 8291
          8292 8293 8294 8295 8296 8297
          8298 8299 8300 8301 8302 8303
          8304 8305 8306 8307 8308 8309
          8310 8311 8312 8313 8314 8315
          8316 8317 8318 8319 8320 8321
          8322 8323 8324 8325 8326 8327
          8328 8329 8330 8331 8332 8333
          8334 8335 8336 8337 8338 8339
          8340 8341 8342 8343 8344 8345
          8346 8347 8348 8349 8350 8351
          8352 8353 8354 8355 8356 8357
          8358 8359 8360 8361 8362 8363
          8364 8365 8366 8367 8368 8369
          8370 8371 8372 8373 8374 8375
          8376 8377 8378 8379 8380 8381
          8382 8383 8384 8385 8386 8387
          8388 8389 8390 8391 8392 8393
          8394 8395 8396 8397 8398 8399
          8400 8401 8402 8403 8404 8405
          8406 8407 8408 8409 8410 8411
          8412 8413 8414 8415 8416 8417
          8418 8419 8420 8421 8422 8423
          8424 8425 8426 8427 8428 8429
          8430 8431 8432 8433 8434 8435
          8436 8437 8438 8439 8440 8441
          8442 8443 8444 8445 8446 8447
          8448 8449 8450 8451 8452 8453
          8454 8455 8456 8457 8458 8459
          8460 8461 8462 8463 8464 8465
          8466 8467 8468 8469 8470 8471
          8472 8473 8474 8475 8476 8477
          8478 8479 8480 8481 8482 8483
          8484 8485 8486 8487 8488 8489
          8490 8491 8492 8493 8494 8495
          8496 8497 8498 8499 8500 8501
          8502 8503 8504 8505 8506 8507
          8508 8509 8510 8511 8512 8513
          8514 8515 8516 8517 8518 8519
          8520 8521 8522 8523 8524 8525
          8526 8527 8528 8529 8530 8531
          8532 8533 8534 8535 8536 8537
          8538 8539 8540 8541 8542 8543
          8544 8545 8546 8547 8548 8549
          8550 8551 8552 8553 8554 8555
          8556 8557 8558 8559 8560 8561
          8562 8563 8564 8565 8566 8567
          8568 8569 8570 8571 8572 8573
          8574 8575 8576 8577 8578 8579
          8580 8581 8582 8583 8584 8585
          8586 8587 8588 8589 8590 8591
          8592 8593 8594 8595 8596 8597
          8598 8599 8600 8601 8602 8603
          8604 8605 8606 8607 8608 8609
          8610 8611 8612 8613 8614 8615
          8616 8617 8618 8619 8620 8621
          8622 8623 8624 8625 8626 8627
          8628 8629 8630 8631 8632 8633
          8634 8635 8636 8637 8638 8639
          8640 8641 8642 8643 8644 8645
          8646 8647 8648 8649 8650 8651
          8652 8653 8654 8655 8656 8657
          8658 8659 8660 8661 8662 8663
          8664 8665 8666 8667 8668 8669
          8670 8671 8672 8673 8674 8675
          8676 8677 8678 8679 8680 8681
          8682 8683 8684 8685 8686 8687
          8688 8689 8690 8691 8692 8693
          8694 8695 8696 8697 8698 8699
          8700 8701 8702 8703 8704 8705
          8706 8707 8708 8709 8710 8711
          8712 8713 8714 8715 8716 8717
          8718 8719 8720 8721 8722 8723
          8724 8725 8726 8727 8728 8729
          8730 8731 8732 8733 8734 8735
          8736 8737 8738 8739 8740 8741
          8742 8743 8744 8745 8746 8747
          8748 8749 8750 8751 8752 8753
          8754 8755 8756 8757 8758 8759
          8760 8761 8762 8763 8764 8765
          8766 8767 8768 8769 8770 8771
          8772 8773 8774 8775 8776 8777
          8778 8779 8780 8781 8782 8783
          8784 8785 8786 8787 8788 8789
          8790 8791 8792 8793 8794 8795
          8796 8797 8798 8799 8800 8801
          8802 8803 8804 8805 8806 8807
          8808 8809 8810 8811 8812 8813
          8814 8815 8816 8817 8818 8819
          8820 8821 8822 8823 8824 8825
          8826 8827 8828 8829 8830 8831
          8832 8833 8834 8835 8836 8837
          8838 8839 8840 8841 8842 8843
          8844 8845 8846 8847 8848 8849
          8850 8851 8852 8853 8854 8855
          8856 8857 8858 8859 8860 8861
          8862 8863 8864 8865 8866 8867
          8868 8869 8870 8871 8872 8873
          8874 8875 8876 8877 8878 8879
          8880 8881 8882 8883 8884 8885
          8886 8887 8888 8889 8890 8891
          8892 8893 8894 8895 8896 8897
          8898 8899 8900 8901 8902 8903
          8904 8905 8906 8907 8908 8909
          8910 8911 8912 8913 8914 8915
          8916 8917 8918 8919 8920 8921
          8922 8923 8924 8925 8926 8927
          8928 8929 8930 8931 8932 8933
          8934 8935 8936 8937 8938 8939
          8940 8941 8942 8943 8944 8945
          8946 8947 8948 8949 8950 8951
          8952 8953 8954 8955 8956 8957
          8958 8959 8960 8961 8962 8963
          8964 8965 8966 8967 8968 8969
          8970 8971 8972 8973 8974 8975
          8976 8977 8978 8979 8980 8981
          8982 8983 8984 8985 8986 8987
          8988 8989 8990 8991 8992 8993
          8994 8995 8996 8997 8998 8999
          9000 9001 9002 9003 9004 9005
          9006 9007 9008 9009 9010 9011
          9012 9013 9014 9015 9016 9017
          9018 9019 9020 9021 9022 9023
          9024 9025 9026 9027 9028 9029
          9030 9031 9032 9033 9034 9035
          9036 9037 9038 9039 9040 9041
          9042 9043 9044 9045 9046 9047
          9048 9049 9050 9051 9052 9053
          9054 9055 9056 9057 9058 9059
          9060 9061 9062 9063 9064 9065
          9066 9067 9068 9069 9070 9071
          9072 9073 9074 9075 9076 9077
          9078 9079 9080 9081 9082 9083
          9084 9085 9086 9087 9088 9089
          9090 9091 9092 9093 9094 9095
          9096 9097 9098 9099 9100 9101
          9102 9103 9104 9105 9106 9107
          9108 9109 9110 9111 9112 9113
          9114 9115 9116 9117 9118 9119
          9120 9121 9122 9123 9124 9125
          9126 9127 9128 9129 9130 9131
          9132 9133 9134 9135 9136 9137
          9138 9139 9140 9141 9142 9143
          9144 9145 9146 9147 9148 9149
          9150 9151 9152 9153 9154 9155
          9156 9157 9158 9159 9160 9161
          9162 9163 9164 9165 9166 9167
          9168 9169 9170 9171 9172 9173
          9174 9175 9176 9177 9178 9179
          9180 9181 9182 9183 9184 9185
          9186 9187 9188 9189 9190 9191
          9192 9193 9194 9195 9196 9197
          9198 9199 9200 9201 9202 9203
          9204 9205 9206 9207 9208 9209
          9210 9211 9212 9213 9214 9215
          9216 9217 9218 9219 9220 9221
          9222 9223 9224 9225 9226 9227
          9228 9229 9230 9231 9232 9233
          9234 9235 9236 9237 9238 9239
          9240 9241 9242 9243 9244 9245
          9246 9247 9248 9249 9250 9251
          9252 9253 9254 9255 9256 9257
          9258 9259 9260 9261 9262 9263
          9264 9265 9266 9267 9268 9269
          9270 9271 9272 9273 9274 9275
          9276 9277 9278 9279 9280 9281
          9282 9283 9284 9285 9286 9287
          9288 9289 9290 9291 9292 9293
          9294 9295 9296 9297 9298 9299
          9300 9301 9302 9303 9304 9305
          9306 9307 9308 9309 9310 9311
          9312 9313 9314 9315 9316 9317
          9318 9319 9320 9321 9322 9323
          9324 9325 9326 9327 9328 9329
          9330 9331 9332 9333 9334 9335
          9336 9337 9338 9339 9340 9341
          9342 9343 9344 9345 9346 9347
          9348 9349 9350 9351 9352 9353
          9354 9355 9356 9357 9358 9359
          9360 9361 9362 9363 9364 9365
          9366 9367 9368 9369 9370 9371
          9372 9373 9374 9375 9376 9377
          9378 9379 9380 9381 9382 9383
          9384 9385 9386 9387 9388 9389
          9390 9391 9392 9393 9394 9395
          9396 9397 9398 9399 9400 9401
          9402 9403 9404 9405 9406 9407
          9408 9409 9410 9411 9412 9413
          9414 9415 9416 9417 9418 9419
          9420 9421 9422 9423 9424 9425
          9426 9427 9428 9429 9430 9431
          9432 9433 9434 9435 9436 9437
          9438 9439 9440 9441 9442 9443
          9444 9445 9446 9447 9448 9449
          9450 9451 9452 9453 9454 9455
          9456 9457 9458 9459 9460 9461
          9462 9463 9464 9465 9466 9467
          9468 9469 9470 9471 9472 9473
          9474 9475 9476 9477 9478 9479
          9480 9481 9482 9483 9484 9485
          9486 9487 9488 9489 9490 9491
          9492 9493 9494 9495 9496 9497
          9498 9499 9500 9501 9502 9503
          9504 9505 9506 9507 9508 9509
          9510 9511 9512 9513 9514 9515
          9516 9517 9518 9519 9520 9521
          9522 9523 9524 9525 9526 9527
          9528 9529 9530 9531 9532 9533
          9534 9535 9536 9537 9538 9539
          9540 9541 9542 9543 9544 9545
          9546 9547 9548 9549 9550 9551
          9552 9553 9554 9555 9556 9557
          9558 9559 9560 9561 9562 9563
          9564 9565 9566 9567 9568 9569
          9570 9571 9572 9573 9574 9575
          9576 9577 9578 9579 9580 9581
          9582 9583 9584 9585 9586 9587
          9588 9589 9590 9591 9592 9593
          9594 9595 9596 9597 9598 9599
          9600 9601 9602 9603 9604 9605
          9606 9607 9608 9609 9610 9611
          9612 9613 9614 9615 9616 9617
          9618 9619 9620 9621 9622 9623
          9624 9625 9626 9627 9628 9629
          9630 9631 9632 9633 9634 9635
          9636 9637 9638 9639 9640 9641
          9642 9643 9644 9645 9646 9647
          9648 9649 9650 9651 9652 9653
          9654 9655 9656 9657 9658 9659
          9660 9661 9662 9663 9664 9665
          9666 9667 9668 9669 9670 9671
          9672 9673 9674 9675 9676 9677
          9678 9679 9680 9681 9682 9683
          9684 9685 9686 9687 9688 9689
          9690 9691 9692 9693 9694 9695
          9696 9697 9698 9699 9700 9701
          9702 9703 9704 9705 9706 9707
          9708 9709 9710 9711 9712 9713
          9714 9715 9716 9717 9718 9719
          9720 9721 9722 9723 9724 9725
          9726 9727 9728 9729 9730 9731
          9732 9733 9734 9735 9736 9737
          9738 9739 9740 9741 9742 9743
          9744 9745 9746 9747 9748 9749
          9750 9751 9752 9753 9754 9755
          9756 9757 9758 9759 9760 9761
          9762 9763 9764 9765 9766 9767
          9768 9769 9770 9771 9772 9773
          9774 9775 9776 9777 9778 9779
          9780 9781 9782 9783 9784 9785
          9786 9787 9788 9789 9790 9791
          9792 9793 9794 9795 9796 9797
          9798 9799 9800 9801 9802 9803
          9804 9805 9806 9807 9808 9809
          9810 9811 9812 9813 9814 9815
          9816 9817 9818 9819 9820 9821
          9822 9823 9824 9825 9826 9827
          9828 9829 9830 9831 9832 9833
          9834 9835 9836 9837 9838 9839
          9840 9841 9842 9843 9844 9845
          9846 9847 9848 9849 9850 9851
          9852 9853 9854 9855 9856 9857
          9858 9859 9860 9861 9862 9863
          9864 9865 9866 9867 9868 9869
          9870 9871 9872 9873 9874 9875
          9876 9877 9878 9879 9880 9881
          9882 9883 9884 9885 9886 9887
          9888 9889 9890 9891 9892 9893
          9894 9895 9896 9897 9898 9899
          9900 9901 9902 9903 9904 9905
          9906 9907 9908 9909 9910 9911
          9912 9913 9914 9915 9916 9917
          9918 9919 9920 9921 9922 9923
          9924 9925 9926 9927 9928 9929
          9930 9931 9932 9933 9934 9935
          9936 9937 9938 9939 9940 9941
          9942 9943 9944 9945 9946 9947
          9948 9949 9950 9951 9952 9953
          9954 9955 9956 9957 9958 9959
          9960 9961 9962 9963 9964 9965
          9966 9967 9968 9969 9970 9971
          9972 9973 9974 9975 9976 9977
          9978 9979 9980 9981 9982 9983
          9984 9985 9986 9987 9988 9989
          9990 9991 9992 9993 9994 9995
          9996 9997 9998 9999 10000 10001
          10002 10003 10004 10005 10006 10007
          10008 10009 10010 10011 10012 10013
          10014 10015 10016 10017 10018 10019
          10020 10021 10022 10023 10024 10025
          10026 10027 10028 10029 10030 10031
          10032 10033 10034 10035 10036 10037
          10038 10039 10040 10041 10042 10043
          10044 10045 10046 10047 10048 10049
          10050 10051 10052 10053 10054 10055
          10056 10057 10058 10059 10060 10061
          10062 10063 10064 10065 10066 10067
          10068 10069 10070 10071 10072 10073
          10074 10075 10076 10077 10078 10079
          10080 10081 10082 10083 10084 10085
          10086 10087 10088 10089 10090 10091
          10092 10093 10094 10095 10096 10097
          10098 10099 10100 10101 10102 10103
          10104 10105 10106 10107 10108 10109
          10110 10111 10112 10113 10114 10115
          10116 10117 10118 10119 10120 10121
          10122 10123 10124 10125 10126 10127
          10128 10129 10130 10131 10132 10133
          10134 10135 10136 10137 10138 10139
          10140 10141 10142 10143 10144 10145
          10146 10147 10148 10149 10150 10151
          10152 10153 10154 10155 10156 10157
          10158 10159 10160 10161 10162 10163
          10164 10165 10166 10167 10168 10169
          10170 10171 10172 10173 10174 10175
          10176 10177 10178 10179 10180 10181
          10182 10183 10184 10185 10186 10187
          10188 10189 10190 10191 10192 10193
          10194 10195 10196 10197 10198 10199
          10200 10201 10202 10203 10204 10205
          10206 10207 10208 10209 10210 10211
          10212 10213 10214 10215 10216 10217
          10218 10219 10220 10221 10222 10223
          10224 10225 10226 10227 10228 10229
          10230 10231 10232 10233 10234 10235
          10236 10237 10238 10239 10240 10241
          10242 10243 10244 10245 10246 10247
          10248 10249 10250 10251 10252 10253
          10254 10255 10256 10257 10258 10259
          10260 10261 10262 10263 10264 10265
          10266 10267 10268 10269 10270 10271
          10272 10273 10274 10275 10276 10277
          10278 10279 10280 10281 10282 10283
          10284 10285 10286 10287 10288 10289
          10290 10291 10292 10293 10294 10295
          10296 10297 10298 10299 10300 10301
          10302 10303 10304 10305 10306 10307
          10308 10309 10310 10311 10312 10313
          10314 10315 10316 10317 10318 10319
          10320 10321 10322 10323 10324 10325
          10326 10327 10328 10329 10330 10331
          10332 10333 10334 10335 10336 10337
          10338 10339 10340 10341 10342 10343
          10344 10345 10346 10347 10348 10349
          10350 10351 10352 10353 10354 10355
          10356 10357 10358 10359 10360 10361
          10362 10363 10364 10365 10366 10367
          10368 10369 10370 10371 10372 10373
          10374 10375 10376 10377 10378 10379
          10380 10381 10382 10383 10384 10385
          10386 10387 10388 10389 10390 10391
          10392 10393 10394 10395 10396 10397
          10398 10399 10400 10401 10402 10403
          10404 10405 10406 10407 10408 10409
          10410 10411 10412 10413 10414 10415
          10416 10417 10418 10419 10420 10421
          10422 10423 10424 10425 10426 10427
          10428 10429 10430 10431 10432 10433
          10434 10435 10436 10437 10438 10439
          10440 10441 10442 10443 10444 10445
          10446 10447 10448 10449 10450 10451
          10452 10453 10454 10455 10456 10457
          10458 10459 10460 10461 10462 10463
          10464 10465 10466 10467 10468 10469
          10470 10471 10472 10473 10474 10475
          10476 10477 10478 10479 10480 10481
          10482 10483 10484 10485 10486 10487
          10488 10489 10490 10491 10492 10493
          10494 10495 10496 10497 10498 10499
          10500 10501 10502 10503 10504 10505
          10506 10507 10508 10509 10510 10511
          10512 10513 10514 10515 10516 10517
          10518 10519 10520 10521 10522 10523
          10524 10525 10526 10527 10528 10529
          10530 10531 10532 10533 10534 10535
          10536 10537 10538 10539 10540 10541
          10542 10543 10544 10545 10546 10547
          10548 10549 10550 10551 10552 10553
          10554 10555 10556 10557 10558 10559
          10560 10561 10562 10563 10564 10565
          10566 10567 10568 10569 10570 10571
          10572 10573 10574 10575 10576 10577
          10578 10579 10580 10581 10582 10583
          10584 10585 10586 10587 10588 10589
          10590 10591 10592 10593 10594 10595
          10596 10597 10598 10599 10600 10601
          10602 10603 10604 10605 10606 10607
          10608 10609 10610 10611 10612 10613
          10614 10615 10616 10617 10618 10619
          10620 10621 10622 10623 10624 10625
          10626 10627 10628 10629 10630 10631
          10632 10633 10634 10635 10636 10637
          10638 10639 10640 10641 10642 10643
          10644 10645 10646 10647 10648 10649
          10650 10651 10652 10653 10654 10655
          10656 10657 10658 10659 10660 10661
          10662 10663 10664 10665 10666 10667
          10668 10669 10670 10671 10672 10673
          10674 10675 10676 10677 10678 10679
          10680 10681 10682 10683 10684 10685
          10686 10687 10688 10689 10690 10691
          10692 10693 10694 10695 10696 10697
          10698 10699 10700 10701 10702 10703
          10704 10705 10706 10707 10708 10709
          10710 10711 10712 10713 10714 10715
          10716 10717 10718 10719 10720 10721
          10722 10723 10724 10725 10726 10727
          10728 10729 10730 10731 10732 10733
          10734 10735 10736 10737 10738 10739
          10740 10741 10742 10743 10744 10745
          10746 10747 10748 10749 10750 10751
          10752 10753 10754 10755 10756 10757
          10758 10759 10760 10761 10762 10763
          10764 10765 10766 10767 10768 10769
          10770 10771 10772 10773 10774 10775
          10776 10777 10778 10779 10780 10781
          10782 10783 10784 10785 10786 10787
          10788 10789 10790 10791 10792 10793
          10794 10795 10796 10797 10798 10799
          10800 10801 10802 10803 10804 10805
          10806 10807 10808 10809 10810 10811
          10812 10813 10814 10815 10816 10817
          10818 10819 10820 10821 10822 10823
          10824 10825 10826 10827 10828 10829
          10830 10831 10832 10833 10834 10835
          10836 10837 10838 10839 10840 10841
          10842 10843 10844 10845 10846 10847
          10848 10849 10850 10851 10852 10853
          10854 10855 10856 10857 10858 10859
          10860 10861 10862 10863 10864 10865
          10866 10867 10868 10869 10870 10871
          10872 10873 10874 10875 10876 10877
          10878 10879 10880 10881 10882 10883
          10884 10885 10886 10887 10888 10889
          10890 10891 10892 10893 10894 10895
          10896 10897 10898 10899 10900 10901
          10902 10903 10904 10905 10906 10907
          10908 10909 10910 10911 10912 10913
          10914 10915 10916 10917 10918 10919
          10920 10921 10922 10923 10924 10925
          10926 10927 10928 10929 10930 10931
          10932 10933 10934 10935 10936 10937
          10938 10939 10940 10941 10942 10943
          10944 10945 10946 10947 10948 10949
          10950 10951 10952 10953 10954 10955
          10956 10957 10958 10959 10960 10961
          10962 10963 10964 10965 10966 10967
          10968 10969 10970 10971 10972 10973
          10974 10975 10976 10977 10978 10979
          10980 10981 10982 10983 10984 10985
          10986 10987 10988 10989 10990 10991
          10992 10993 10994 10995 10996 10997
          10998 10999 11000 11001 11002 11003
          11004 11005 11006 11007 11008 11009
          11010 11011 11012 11013 11014 11015
          11016 11017 11018 11019 11020 11021
          11022 11023 11024 11025 11026 11027
          11028 11029 11030 11031 11032 11033
          11034 11035 11036 11037 11038 11039
          11040 11041 11042 11043 11044 11045
          11046 11047 11048 11049 11050 11051
          11052 11053 11054 11055 11056 11057
          11058 11059 11060 11061 11062 11063
          11064 11065 11066 11067 11068 11069
          11070 11071 11072 11073 11074 11075
          11076 11077 11078 11079 11080 11081
          11082 11083 11084 11085 11086 11087
          11088 11089 11090 11091 11092 11093
          11094 11095 11096 11097 11098 11099
          11100 11101 11102 11103 11104 11105
          11106 11107 11108 11109 11110 11111
          11112 11113 11114 11115 11116 11117
          11118 11119 11120 11121 11122 11123
          11124 11125 11126 11127 11128 11129
          11130 11131 11132 11133 11134 11135
          11136 11137 11138 11139 11140 11141
          11142 11143 11144 11145 11146 11147
          11148 11149 11150 11151 11152 11153
          11154 11155 11156 11157 11158 11159
          11160 11161 11162 11163 11164 11165
          11166 11167 11168 11169 11170 11171
          11172 11173 11174 11175 11176 11177
          11178 11179 11180 11181 11182 11183
          11184 11185 11186 11187 11188 11189
          11190 11191 11192 11193 11194 11195
          11196 11197 11198 11199 11200 11201
          11202 11203 11204 11205 11206 11207
          11208 11209 11210 11211 11212 11213
          11214 11215 11216 11217 11218 11219
          11220 11221 11222 11223 11224 11225
          11226 11227 11228 11229 11230 11231
          11232 11233 11234 11235 11236 11237
          11238 11239 11240 11241 11242 11243
          11244 11245 11246 11247 11248 11249
          11250 11251 11252 11253 11254 11255
          11256 11257 11258 11259 11260 11261
          11262 11263 11264 11265 11266 11267
          11268 11269 11270 11271 11272 11273
          11274 11275 11276 11277 11278 11279
          11280 11281 11282 11283 11284 11285
          11286 11287 11288 11289 11290 11291
          11292 11293 11294 11295 11296 11297
          11298 11299 11300 11301 11302 11303
          11304 11305 11306 11307 11308 11309
          11310 11311 11312 11313 11314 11315
          11316 11317 11318 11319 11320 11321
          11322 11323 11324 11325 11326 11327
          11328 11329 11330 11331 11332 11333
          11334 11335 11336 11337 11338 11339
          11340 11341 11342 11343 11344 11345
          11346 11347 11348 11349 11350 11351
          11352 11353 11354 11355 11356 11357
          11358 11359 11360 11361 11362 11363
          11364 11365 11366 11367 11368 11369
          11370 11371 11372 11373 11374 11375
          11376 11377 11378 11379 11380 11381
          11382 11383 11384 11385 11386 11387
          11388 11389 11390 11391 11392 11393
          11394 11395 11396 11397 11398 11399
          11400 11401 11402 11403 11404 11405
          11406 11407 11408 11409 11410 11411
          11412 11413 11414 11415 11416 11417
          11418 11419 11420 11421 11422 11423
          11424 11425 11426 11427 11428 11429
          11430 11431 11432 11433 11434 11435
          11436 11437 11438 11439 11440 11441
          11442 11443 11444 11445 11446 11447
          11448 11449 11450 11451 11452 11453
          11454 11455 11456 11457 11458 11459
          11460 11461 11462 11463 11464 11465
          11466 11467 11468 11469 11470 11471
          11472 11473 11474 11475 11476 11477
          11478 11479 11480 11481 11482 11483
          11484 11485 11486 11487 11488 11489
          11490 11491 11492 11493 11494 11495
          11496 11497 11498 11499 11500 11501
          11502 11503 11504 11505 11506 11507
          11508 11509 11510 11511 11512 11513
          11514 11515 11516 11517 11518 11519
          11520 11521 11522 11523 11524 11525
          11526 11527 11528 11529 11530 11531
          11532 11533 11534 11535 11536 11537
          11538 11539 11540 11541 11542 11543
          11544 11545 11546 11547 11548 11549
          11550 11551 11552 11553 11554 11555
          11556 11557 11558 11559 11560 11561
          11562 11563 11564 11565 11566 11567
          11568 11569 11570 11571 11572 11573
          11574 11575 11576 11577 11578 11579
          11580 11581 11582 11583 11584 11585
          11586 11587 11588 11589 11590 11591
          11592 11593 11594 11595 11596 11597
          11598 11599 11600 11601 11602 11603
          11604 11605 11606 11607 11608 11609
          11610 11611 11612 11613 11614 11615
          11616 11617 11618 11619 11620 11621
          11622 11623 11624 11625 11626 11627
          11628 11629 11630 11631 11632 11633
          11634 11635 11636 11637 11638 11639
          11640 11641 11642 11643 11644 11645
          11646 11647 11648 11649 11650 11651
          11652 11653 11654 11655 11656 11657
          11658 11659 11660 11661 11662 11663
          11664 11665 11666 11667 11668 11669
          11670 11671 11672 11673 11674 11675
          11676 11677 11678 11679 11680 11681
          11682 11683 11684 11685 11686 11687
          11688 11689 11690 11691 11692 11693
          11694 11695 11696 11697 11698 11699
          11700 11701 11702 11703 11704 11705
          11706 11707 11708 11709 11710 11711
          11712 11713 11714 11715 11716 11717
          11718 11719 11720 11721 11722 11723
          11724 11725 11726 11727 11728 11729
          11730 11731 11732 11733 11734 11735
          11736 11737 11738 11739 11740 11741
          11742 11743 11744 11745 11746 11747
          11748 11749 11750 11751 11752 11753
          11754 11755 11756 11757 11758 11759
          11760 11761 11762 11763 11764 11765
          11766 11767 11768 11769 11770 11771
          11772 11773 11774 11775 11776 11777
          11778 11779 11780 11781 11782 11783
          11784 11785 11786 11787 11788 11789
          11790 11791 11792 11793 11794 11795
          11796 11797 11798 11799 11800 11801
          11802 11803 11804 11805 11806 11807
          11808 11809 11810 11811 11812 11813
          11814 11815 11816 11817 11818 11819
          11820 11821 11822 11823 11824 11825
          11826 11827 11828 11829 11830 11831
          11832 11833 11834 11835 11836 11837
          11838 11839 11840 11841 11842 11843
          11844 11845 11846 11847 11848 11849
          11850 11851 11852 11853 11854 11855
          11856 11857 11858 11859 11860 11861
          11862 11863 11864 11865 11866 11867
          11868 11869 11870 11871 11872 11873
          11874 11875 11876 11877 11878 11879
          11880 11881 11882 11883 11884 11885
          11886 11887 11888 11889 11890 11891
          11892 11893 11894 11895 11896 11897
          11898 11899 11900 11901 11902 11903
          11904 11905 11906 11907 11908 11909
          11910 11911 11912 11913 11914 11915
          11916 11917 11918 11919 11920 11921
          11922 11923 11924 11925 11926 11927
          11928 11929 11930 11931 11932 11933
          11934 11935 11936 11937 11938 11939
          11940 11941 11942 11943 11944 11945
          11946 11947 11948 11949 11950 11951
          11952 11953 11954 11955 11956 11957
          11958 11959 11960 11961 11962 11963
          11964 11965 11966 11967 11968 11969
          11970 11971 11972 11973 11974 11975
          11976 11977 11978 11979 11980 11981
          11982 11983 11984 11985 11986 11987
          11988 11989 11990 11991 11992 11993
          11994 11995 11996 11997 11998 11999
          12000 12001 12002 12003 12004 12005
          12006 12007 12008 12009 12010 12011
          12012 12013 12014 12015 12016 12017
          12018 12019 12020 12021 12022 12023
          12024 12025 12026 12027 12028 12029
          12030 12031 12032 12033 12034 12035
          12036 12037 12038 12039 12040 12041
          12042 12043 12044 12045 12046 12047
          12048 12049 12050 12051 12052 12053
          12054 12055 12056 12057 12058 12059
          12060 12061 12062 12063 12064 12065
          12066 12067 12068 12069 12070 12071
          12072 12073 12074 12075 12076 12077
          12078 12079 12080 12081 12082 12083
          12084 12085 12086 12087 12088 12089
          12090 12091 12092 12093 12094 12095
          12096 12097 12098 12099 12100 12101
          12102 12103 12104 12105 12106 12107
          12108 12109 12110 12111 12112 12113
          12114 12115 12116 12117 12118 12119
          12120 12121 12122 12123 12124 12125
          12126 12127 12128 12129 12130 12131
          12132 12133 12134 12135 12136 12137
          12138 12139 12140 12141 12142 12143
          12144 12145 12146 12147 12148 12149
          12150 12151 12152 12153 12154 12155
          12156 12157 12158 12159 12160 12161
          12162 12163 12164 12165 12166 12167
          12168 12169 12170 12171 12172 12173
          12174 12175 12176 12177 12178 12179
          12180 12181 12182 12183 12184 12185
          12186 12187 12188 12189 12190 12191
          12192 12193 12194 12195 12196 12197
          12198 12199 12200 12201 12202 12203
          12204 12205 12206 12207 12208 12209
          12210 12211 12212 12213 12214 12215
          12216 12217 12218 12219 12220 12221
          12222 12223 12224 12225 12226 12227
          12228 12229 12230 12231 12232 12233
          12234 12235 12236 12237 12238 12239
          12240 12241 12242 12243 12244 12245
          12246 12247 12248 12249 12250 12251
          12252 12253 12254 12255 12256 12257
          12258 12259 12260 12261 12262 12263
          12264 12265 12266 12267 12268 12269
          12270 12271 12272 12273 12274 12275
          12276 12277 12278 12279 12280 12281
          12282 12283 12284 12285 12286 12287
          12288 12289 12290 12291 12292 12293
          12294 12295 12296 12297 12298 12299
          12300 12301 12302 12303 12304 12305
          12306 12307 12308 12309 12310 12311
          12312 12313 12314 12315 12316 12317
          12318 12319 12320 12321 12322 12323
          12324 12325 12326 12327 12328 12329
          12330 12331 12332 12333 12334 12335
          12336 12337 12338 12339 12340 12341
          12342 12343 12344 12345 12346 12347
          12348 12349 12350 12351 12352 12353
          12354 12355 12356 12357 12358 12359
          12360 12361 12362 12363 12364 12365
          12366 12367 12368 12369 12370 12371
          12372 12373 12374 12375 12376 12377
          12378 12379 12380 12381 12382 12383
          12384 12385 12386 12387 12388 12389
          12390 12391 12392 12393 12394 12395
          12396 12397 12398 12399 12400 12401
          12402 12403 12404 12405 12406 12407
          12408 12409 12410 12411 12412 12413
          12414 12415 12416 12417 12418 12419
          12420 12421 12422 12423 12424 12425
          12426 12427 12428 12429 12430 12431
          12432 12433 12434 12435 12436 12437
          12438 12439 12440 12441 12442 12443
          12444 12445 12446 12447 12448 12449
          12450 12451 12452 12453 12454 12455
          12456 12457 12458 12459 12460 12461
          12462 12463 12464 12465 12466 12467
          12468 12469 12470 12471 12472 12473
          12474 12475 12476 12477 12478 12479
          12480 12481 12482 12483 12484 12485
          12486 12487 12488 12489 12490 12491
          12492 12493 12494 12495 12496 12497
          12498 12499 12500 12501 12502 12503
          12504 12505 12506 12507 12508 12509
          12510 12511 12512 12513 12514 12515
          12516 12517 12518 12519 12520 12521
          12522 12523 12524 12525 12526 12527
          12528 12529 12530 12531 12532 12533
          12534 12535 12536 12537 12538 12539
          12540 12541 12542 12543 12544 12545
          12546 12547 12548 12549 12550 12551
          12552 12553 12554 12555 12556 12557
          12558 12559 12560 12561 12562 12563
          12564 12565 12566 12567 12568 12569
          12570 12571 12572 12573 12574 12575
          12576 12577 12578 12579 12580 12581
          12582 12583 12584 12585 12586 12587
          12588 12589 12590 12591 12592 12593
          12594 12595 12596 12597 12598 12599
          12600 12601 12602 12603 12604 12605
          12606 12607 12608 12609 12610 12611
          12612 12613 12614 12615 12616 12617
          12618 12619 12620 12621 12622 12623
          12624 12625 12626 12627 12628 12629
          12630 12631 12632 12633 12634 12635
          12636 12637 12638 12639 12640 12641
          12642 12643 12644 12645 12646 12647
          12648 12649 12650 12651 12652 12653
          12654 12655 12656 12657 12658 12659
          12660 12661 12662 12663 12664 12665
          12666 12667 12668 12669 12670 12671
          12672 12673 12674 12675 12676 12677
          12678 12679 12680 12681 12682 12683
          12684 12685 12686 12687 12688 12689
          12690 12691 12692 12693 12694 12695
          12696 12697 12698 12699 12700 12701
          12702 12703 12704 12705 12706 12707
          12708 12709 12710 12711 12712 12713
          12714 12715 12716 12717 12718 12719
          12720 12721 12722 12723 12724 12725
          12726 12727 12728 12729 12730 12731
          12732 12733 12734 12735 12736 12737
          12738 12739 12740 12741 12742 12743
          12744 12745 12746 12747 12748 12749
          12750 12751 12752 12753 12754 12755
          12756 12757 12758 12759 12760 12761
          12762 12763 12764 12765 12766 12767
          12768 12769 12770 12771 12772 12773
          12774 12775 12776 12777 12778 12779
          12780 12781 12782 12783 12784 12785
          12786 12787 12788 12789 12790 12791
          12792 12793 12794 12795 12796 12797
          12798 12799 12800 12801 12802 12803
          12804 12805 12806 12807 12808 12809
          12810 12811 12812 12813 12814 12815
          12816 12817 12818 12819 12820 12821
          12822 12823 12824 12825 12826 12827
          12828 12829 12830 12831 12832 12833
          12834 12835 12836 12837 12838 12839
          12840 12841 12842 12843 12844 12845
          12846 12847 12848 12849 12850 12851
          12852 12853 12854 12855 12856 12857
          12858 12859 12860 12861 12862 12863
          12864 12865 12866 12867 12868 12869
          12870 12871 12872 12873 12874 12875
          12876 12877 12878 12879 12880 12881
          12882 12883 12884 12885 12886 12887
          12888 12889 12890 12891 12892 12893
          12894 12895 12896 12897 12898 12899
          12900 12901 12902 12903 12904 12905
          12906 12907 12908 12909 12910 12911
          12912 12913 12914 12915 12916 12917
          12918 12919 12920 12921 12922 12923
          12924 12925 12926 12927 12928 12929
          12930 12931 12932 12933 12934 12935
          12936 12937 12938 12939 12940 12941
          12942 12943 12944 12945 12946 12947
          12948 12949 12950 12951 12952 12953
          12954 12955 12956 12957 12958 12959
          12960 12961 12962 12963 12964 12965
          12966 12967 12968 12969 12970 12971
          12972 12973 12974 12975 12976 12977
          12978 12979 12980 12981 12982 12983
          12984 12985 12986 12987 12988 12989
          12990 12991 12992 12993 12994 12995
          12996 12997 12998 12999 13000 13001
          13002 13003 13004 13005 13006 13007
          13008 13009 13010 13011 13012 13013
          13014 13015 13016 13017 13018 13019
          13020 13021 13022 13023 13024 13025
          13026 13027 13028 13029 13030 13031
          13032 13033 13034 13035 13036 13037
          13038 13039 13040 13041 13042 13043
          13044 13045 13046 13047 13048 13049
          13050 13051 13052 13053 13054 13055
          13056 13057 13058 13059 13060 13061
          13062 13063 13064 13065 13066 13067
          13068 13069 13070 13071 13072 13073
          13074 13075 13076 13077 13078 13079
          13080 13081 13082 13083 13084 13085
          13086 13087 13088 13089 13090 13091
          13092 13093 13094 13095 13096 13097
          13098 13099 13100 13101 13102 13103
          13104 13105 13106 13107 13108 13109
          13110 13111 13112 13113 13114 13115
          13116 13117 13118 13119 13120 13121
          13122 13123 13124 13125 13126 13127
          13128 13129 13130 13131 13132 13133
          13134 13135 13136 13137 13138 13139
          13140 13141 13142 13143 13144 13145
          13146 13147 13148 13149 13150 13151
          13152 13153 13154 13155 13156 13157
          13158 13159 13160 13161 13162 13163
          13164 13165 13166 13167 13168 13169
          13170 13171 13172 13173 13174 13175
          13176 13177 13178 13179 13180 13181
          13182 13183 13184 13185 13186 13187
          13188 13189 13190 13191 13192 13193
          13194 13195 13196 13197 13198 13199
          13200 13201 13202 13203 13204 13205
          13206 13207 13208 13209 13210 13211
          13212 13213 13214 13215 13216 13217
          13218 13219 13220 13221 13222 13223
          13224 13225 13226 13227 13228 13229
          13230 13231 13232 13233 13234 13235
          13236 13237 13238 13239 13240 13241
          13242 13243 13244 13245 13246 13247
          13248 13249 13250 13251 13252 13253
          13254 13255 13256 13257 13258 13259
          13260 13261 13262 13263 13264 13265
          13266 13267 13268 13269 13270 13271
          13272 13273 13274 13275 13276 13277
          13278 13279 13280 13281 13282 13283
          13284 13285 13286 13287 13288 13289
          13290 13291 13292 13293 13294 13295
          13296 13297 13298 13299 13300 13301
          13302 13303 13304 13305 13306 13307
          13308 13309 13310 13311 13312 13313
          13314 13315 13316 13317 13318 13319
          13320 13321 13322 13323 13324 13325
          13326 13327 13328 13329 13330 13331
          13332 13333 13334 13335 13336 13337
          13338 13339 13340 13341 13342 13343
          13344 13345 13346 13347 13348 13349
          13350 13351 13352 13353 13354 13355
          13356 13357 13358 13359 13360 13361
          13362 13363 13364 13365 13366 13367
          13368 13369 13370 13371 13372 13373
          13374 13375 13376 13377 13378 13379
          13380 13381 13382 13383 13384 13385
          13386 13387 13388 13389 13390 13391
          13392 13393 13394 13395 13396 13397
          13398 13399 13400 13401 13402 13403
          13404 13405 13406 13407 13408 13409
          13410 13411 13412 13413 13414 13415
          13416 13417 13418 13419 13420 13421
          13422 13423 13424 13425 13426 13427
          13428 13429 13430 13431 13432 13433
          13434 13435 13436 13437 13438 13439
          13440 13441 13442 13443 13444 13445
          13446 13447 13448 13449 13450 13451
          13452 13453 13454 13455 13456 13457
          13458 13459 13460 13461 13462 13463
          13464 13465 13466 13467 13468 13469
          13470 13471 13472 13473 13474 13475
          13476 13477 13478 13479 13480 13481
          13482 13483 13484 13485 13486 13487
          13488 13489 13490 13491 13492 13493
          13494 13495 13496 13497 13498 13499
          13500 13501 13502 13503 13504 13505
          13506 13507 13508 13509 13510 13511
          13512 13513 13514 13515 13516 13517
          13518 13519 13520 13521 13522 13523
          13524 13525 13526 13527 13528 13529
          13530 13531 13532 13533 13534 13535
          13536 13537 13538 13539 13540 13541
          13542 13543 13544 13545 13546 13547
          13548 13549 13550 13551 13552 13553
          13554 13555 13556 13557 13558 13559
          13560 13561 13562 13563 13564 13565
          13566 13567 13568 13569 13570 13571
          13572 13573 13574 13575 13576 13577
          13578 13579 13580 13581 13582 13583
          13584 13585 13586 13587 13588 13589
          13590 13591 13592 13593 13594 13595
          13596 13597 13598 13599 13600 13601
          13602 13603 13604 13605 13606 13607
          13608 13609 13610 13611 13612 13613
          13614 13615 13616 13617 13618 13619
          13620 13621 13622 13623 13624 13625
          13626 13627 13628 13629 13630 13631
          13632 13633 13634 13635 13636 13637
          13638 13639 13640 13641 13642 13643
          13644 13645 13646 13647 13648 13649
          13650 13651 13652 13653 13654 13655
          13656 13657 13658 13659 13660 13661
          13662 13663 13664 13665 13666 13667
          13668 13669 13670 13671 13672 13673
          13674 13675 13676 13677 13678 13679
          13680 13681 13682 13683 13684 13685
          13686 13687 13688 13689 13690 13691
          13692 13693 13694 13695 13696 13697
          13698 13699 13700 13701 13702 13703
          13704 13705 13706 13707 13708 13709
          13710 13711 13712 13713 13714 13715
          13716 13717 13718 13719 13720 13721
          13722 13723 13724 13725 13726 13727
          13728 13729 13730 13731 13732 13733
          13734 13735 13736 13737 13738 13739
          13740 13741 13742 13743 13744 13745
          13746 13747 13748 13749 13750 13751
          13752 13753 13754 13755 13756 13757
          13758 13759 13760 13761 13762 13763
          13764 13765 13766 13767 13768 13769
          13770 13771 13772 13773 13774 13775
          13776 13777 13778 13779 13780 13781
          13782 13783 13784 13785 13786 13787
          13788 13789 13790 13791 13792 13793
          13794 13795 13796 13797 13798 13799
          13800 13801 13802 13803 13804 13805
          13806 13807 13808 13809 13810 13811
          13812 13813 13814 13815 13816 13817
          13818 13819 13820 13821 13822 13823
          13824 13825 13826 13827 13828 13829
          13830 13831 13832 13833 13834 13835
          13836 13837 13838 13839 13840 13841
          13842 13843 13844 13845 13846 13847
          13848 13849 13850 13851 13852 13853
          13854 13855 13856 13857 13858 13859
          13860 13861 13862 13863 13864 13865
          13866 13867 13868 13869 13870 13871
          13872 13873 13874 13875 13876 13877
          13878 13879 13880 13881 13882 13883
          13884 13885 13886 13887 13888 13889
          13890 13891 13892 13893 13894 13895
          13896 13897 13898 13899 13900 13901
          13902 13903 13904 13905 13906 13907
          13908 13909 13910 13911 13912 13913
          13914 13915 13916 13917 13918 13919
          13920 13921 13922 13923 13924 13925
          13926 13927 13928 13929 13930 13931
          13932 13933 13934 13935 13936 13937
          13938 13939 13940 13941 13942 13943
          13944 13945 13946 13947 13948 13949
          13950 13951 13952 13953 13954 13955
          13956 13957 13958 13959 13960 13961
          13962 13963 13964 13965 13966 13967
          13968 13969 13970 13971 13972 13973
          13974 13975 13976 13977 13978 13979
          13980 13981 13982 13983 13984 13985
          13986 13987 13988 13989 13990 13991
          13992 13993 13994 13995 13996 13997
          13998 13999 14000 14001 14002 14003
          14004 14005 14006 14007 14008 14009
          14010 14011 14012 14013 14014 14015
          14016 14017 14018 14019 14020 14021
          14022 14023 14024 14025 14026 14027
          14028 14029 14030 14031 14032 14033
          14034 14035 14036 14037 14038 14039
          14040 14041 14042 14043 14044 14045
          14046 14047 14048 14049 14050 14051
          14052 14053 14054 14055 14056 14057
          14058 14059 14060 14061 14062 14063
          14064 14065 14066 14067 14068 14069
          14070 14071 14072 14073 14074 14075
          14076 14077 14078 14079 14080 14081
          14082 14083 14084 14085 14086 14087
          14088 14089 14090 14091 14092 14093
          14094 14095 14096 14097 14098 14099
          14100 14101 14102 14103 14104 14105
          14106 14107 14108 14109 14110 14111
          14112 14113 14114 14115 14116 14117
          14118 14119 14120 14121 14122 14123
          14124 14125 14126 14127 14128 14129
          14130 14131 14132 14133 14134 14135
          14136 14137 14138 14139 14140 14141
          14142 14143 14144 14145 14146 14147
          14148 14149 14150 14151 14152 14153
          14154 14155 14156 14157 14158 14159
          14160 14161 14162 14163 14164 14165
          14166 14167 14168 14169 14170 14171
          14172 14173 14174 14175 14176 14177
          14178 14179 14180 14181 14182 14183
          14184 14185 14186 14187 14188 14189
          14190 14191 14192 14193 14194 14195
          14196 14197 14198 14199 14200 14201
          14202 14203 14204 14205 14206 14207
          14208 14209 14210 14211 14212 14213
          14214 14215 14216 14217 14218 14219
          14220 14221 14222 14223 14224 14225
          14226 14227 14228 14229 14230 14231
          14232 14233 14234 14235 14236 14237
          14238 14239 14240 14241 14242 14243
          14244 14245 14246 14247 14248 14249
          14250 14251 14252 14253 14254 14255
          14256 14257 14258 14259 14260 14261
          14262 14263 14264 14265 14266 14267
          14268 14269 14270 14271 14272 14273
          14274 14275 14276 14277 14278 14279
          14280 14281 14282 14283 14284 14285
          14286 14287 14288 14289 14290 14291
          14292 14293 14294 14295 14296 14297
          14298 14299 14300 14301 14302 14303
          14304 14305 14306 14307 14308 14309
          14310 14311 14312 14313 14314 14315
          14316 14317 14318 14319 14320 14321
          14322 14323 14324 14325 14326 14327
          14328 14329 14330 14331 14332 14333
          14334 14335 14336 14337 14338 14339
          14340 14341 14342 14343 14344 14345
          14346 14347 14348 14349 14350 14351
          14352 14353 14354 14355 14356 14357
          14358 14359 14360 14361 14362 14363
          14364 14365 14366 14367 14368 14369
          14370 14371 14372 14373 14374 14375
          14376 14377 14378 14379 14380 14381
          14382 14383 14384 14385 14386 14387
          14388 14389 14390 14391 14392 14393
          14394 14395 14396 14397 14398 14399
          14400 14401 14402 14403 14404 14405
          14406 14407 14408 14409 14410 14411
          14412 14413 14414 14415 14416 14417
          14418 14419 14420 14421 14422 14423
          14424 14425 14426 14427 14428 14429
          14430 14431 14432 14433 14434 14435
          14436 14437 14438 14439 14440 14441
          14442 14443 14444 14445 14446 14447
          14448 14449 14450 14451 14452 14453
          14454 14455 14456 14457 14458 14459
          14460 14461 14462 14463 14464 14465
          14466 14467 14468 14469 14470 14471
          14472 14473 14474 14475 14476 14477
          14478 14479 14480 14481 14482 14483
          14484 14485 14486 14487 14488 14489
          14490 14491 14492 14493 14494 14495
          14496 14497 14498 14499 14500 14501
          14502 14503 14504 14505 14506 14507
          14508 14509 14510 14511 14512 14513
          14514 14515 14516 14517 14518 14519
          14520 14521 14522 14523 14524 14525
          14526 14527 14528 14529 14530 14531
          14532 14533 14534 14535 14536 14537
          14538 14539 14540 14541 14542 14543
          14544 14545 14546 14547 14548 14549
          14550 14551 14552 14553 14554 14555
          14556 14557 14558 14559 14560 14561
          14562 14563 14564 14565 14566 14567
          14568 14569 14570 14571 14572 14573
          14574 14575 14576 14577 14578 14579
          14580 14581 14582 14583 14584 14585
          14586 14587 14588 14589 14590 14591
          14592 14593 14594 14595 14596 14597
          14598 14599 14600 14601 14602 14603
          14604 14605 14606 14607 14608 14609
          14610 14611 14612 14613 14614 14615
          14616 14617 14618 14619 14620 14621
          14622 14623 14624 14625 14626 14627
          14628 14629 14630 14631 14632 14633
          14634 14635 14636 14637 14638 14639
          14640 14641 14642 14643 14644 14645
          14646 14647 14648 14649 14650 14651
          14652 14653 14654 14655 14656 14657
          14658 14659 14660 14661 14662 14663
          14664 14665 14666 14667 14668 14669
          14670 14671 14672 14673 14674 14675
          14676 14677 14678 14679 14680 14681
          14682 14683 14684 14685 14686 14687
          14688 14689 14690 14691 14692 14693
          14694 14695 14696 14697 14698 14699
          14700 14701 14702 14703 14704 14705
          14706 14707 14708 14709 14710 14711
          14712 14713 14714 14715 14716 14717
          14718 14719 14720 14721 14722 14723
          14724 14725 14726 14727 14728 14729
          14730 14731 14732 14733 14734 14735
          14736 14737 14738 14739 14740 14741
          14742 14743 14744 14745 14746 14747
          14748 14749 14750 14751 14752 14753
          14754 14755 14756 14757 14758 14759
          14760 14761 14762 14763 14764 14765
          14766 14767 14768 14769 14770 14771
          14772 14773 14774 14775 14776 14777
          14778 14779 14780 14781 14782 14783
          14784 14785 14786 14787 14788 14789
          14790 14791 14792 14793 14794 14795
          14796 14797 14798 14799 14800 14801
          14802 14803 14804 14805 14806 14807
          14808 14809 14810 14811 14812 14813
          14814 14815 14816 14817 14818 14819
          14820 14821 14822 14823 14824 14825
          14826 14827 14828 14829 14830 14831
          14832 14833 14834 14835 14836 14837
          14838 14839 14840 14841 14842 14843
          14844 14845 14846 14847 14848 14849
          14850 14851 14852 14853 14854 14855
          14856 14857 14858 14859 14860 14861
          14862 14863 14864 14865 14866 14867
          14868 14869 14870 14871 14872 14873
          14874 14875 14876 14877 14878 14879
          14880 14881 14882 14883 14884 14885
          14886 14887 14888 14889 14890 14891
          14892 14893 14894 14895 14896 14897
          14898 14899 14900 14901 14902 14903
          14904 14905 14906 14907 14908 14909
          14910 14911 14912 14913 14914 14915
          14916 14917 14918 14919 14920 14921
          14922 14923 14924 14925 14926 14927
          14928 14929 14930 14931 14932 14933
          14934 14935 14936 14937 14938 14939
          14940 14941 14942 14943 14944 14945
          14946 14947 14948 14949 14950 14951
          14952 14953 14954 14955 14956 14957
          14958 14959 14960 14961 14962 14963
          14964 14965 14966 14967 14968 14969
          14970 14971 14972 14973 14974 14975
          14976 14977 14978 14979 14980 14981
          14982 14983 14984 14985 14986 14987
          14988 14989 14990 14991 14992 14993
          14994 14995 14996 14997 14998 14999
          15000 15001 15002 15003 15004 15005
          15006 15007 15008 15009 15010 15011
          15012 15013 15014 15015 15016 15017
          15018 15019 15020 15021 15022 15023
          15024 15025 15026 15027 15028 15029
          15030 15031 15032 15033 15034 15035
          15036 15037 15038 15039 15040 15041
          15042 15043 15044 15045 15046 15047
          15048 15049 15050 15051 15052 15053
          15054 15055 15056 15057 15058 15059
          15060 15061 15062 15063 15064 15065
          15066 15067 15068 15069 15070 15071
          15072 15073 15074 15075 15076 15077
          15078 15079 15080 15081 15082 15083
          15084 15085 15086 15087 15088 15089
          15090 15091 15092 15093 15094 15095
          15096 15097 15098 15099 15100 15101
          15102 15103 15104 15105 15106 15107
          15108 15109 15110 15111 15112 15113
          15114 15115 15116 15117 15118 15119
          15120 15121 15122 15123 15124 15125
          15126 15127 15128 15129 15130 15131
          15132 15133 15134 15135 15136 15137
          15138 15139 15140 15141 15142 15143
          15144 15145 15146 15147 15148 15149
          15150 15151 15152 15153 15154 15155
          15156 15157 15158 15159 15160 15161
          15162 15163 15164 15165 15166 15167
          15168 15169 15170 15171 15172 15173
          15174 15175 15176 15177 15178 15179
          15180 15181 15182 15183 15184 15185
          15186 15187 15188 15189 15190 15191
          15192 15193 15194 15195 15196 15197
          15198 15199 15200 15201 15202 15203
          15204 15205 15206 15207 15208 15209
          15210 15211 15212 15213 15214 15215
          15216 15217 15218 15219 15220 15221
          15222 15223 15224 15225 15226 15227
          15228 15229 15230 15231 15232 15233
          15234 15235 15236 15237 15238 15239
          15240 15241 15242 15243 15244 15245
          15246 15247 15248 15249 15250 15251
          15252 15253 15254 15255 15256 15257
          15258 15259 15260 15261 15262 15263
          15264 15265 15266 15267 15268 15269
          15270 15271 15272 15273 15274 15275
          15276 15277 15278 15279 15280 15281
          15282 15283 15284 15285 15286 15287
          15288 15289 15290 15291 15292 15293
          15294 15295 15296 15297 15298 15299
          15300 15301 15302 15303 15304 15305
          15306 15307 15308 15309 15310 15311
          15312 15313 15314 15315 15316 15317
          15318 15319 15320 15321 15322 15323
          15324 15325 15326 15327 15328 15329
          15330 15331 15332 15333 15334 15335
          15336 15337 15338 15339 15340 15341
          15342 15343 15344 15345 15346 15347
          15348 15349 15350 15351 15352 15353
          15354 15355 15356 15357 15358 15359
          15360 15361 15362 15363 15364 15365
          15366 15367 15368 15369 15370 15371
          15372 15373 15374 15375 15376 15377
          15378 15379 15380 15381 15382 15383
          15384 15385 15386 15387 15388 15389
          15390 15391 15392 15393 15394 15395
          15396 15397 15398 15399 15400 15401
          15402 15403 15404 15405 15406 15407
          15408 15409 15410 15411 15412 15413
          15414 15415 15416 15417 15418 15419
          15420 15421 15422 15423 15424 15425
          15426 15427 15428 15429 15430 15431
          15432 15433 15434 15435 15436 15437
          15438 15439 15440 15441 15442 15443
          15444 15445 15446 15447 15448 15449
          15450 15451 15452 15453 15454 15455
          15456 15457 15458 15459 15460 15461
          15462 15463 15464 15465 15466 15467
          15468 15469 15470 15471 15472 15473
          15474 15475 15476 15477 15478 15479
          15480 15481 15482 15483 15484 15485
          15486 15487 15488 15489 15490 15491
          15492 15493 15494 15495 15496 15497
          15498 15499 15500 15501 15502 15503
          15504 15505 15506 15507 15508 15509
          15510 15511 15512 15513 15514 15515
          15516 15517 15518 15519 15520 15521
          15522 15523 15524 15525 15526 15527
          15528 15529 15530 15531 15532 15533
          15534 15535 15536 15537 15538 15539
          15540 15541 15542 15543 15544 15545
          15546 15547 15548 15549 15550 15551
          15552 15553 15554 15555 15556 15557
          15558 15559 15560 15561 15562 15563
          15564 15565 15566 15567 15568 15569
          15570 15571 15572 15573 15574 15575
          15576 15577 15578 15579 15580 15581
          15582 15583 15584 15585 15586 15587
          15588 15589 15590 15591 15592 15593
          15594 15595 15596 15597 15598 15599
          15600 15601 15602 15603 15604 15605
          15606 15607 15608 15609 15610 15611
          15612 15613 15614 15615 15616 15617
          15618 15619 15620 15621 15622 15623
          15624 15625 15626 15627 15628 15629
          15630 15631 15632 15633 15634 15635
          15636 15637 15638 15639 15640 15641
          15642 15643 15644 15645 15646 15647
          15648 15649 15650 15651 15652 15653
          15654 15655 15656 15657 15658 15659
          15660 15661 15662 15663 15664 15665
          15666 15667 15668 15669 15670 15671
          15672 15673 15674 15675 15676 15677
          15678 15679 15680 15681 15682 15683
          15684 15685 15686 15687 15688 15689
          15690 15691 15692 15693 15694 15695
          15696 15697 15698 15699 15700 15701
          15702 15703 15704 15705 15706 15707
          15708 15709 15710 15711 15712 15713
          15714 15715 15716 15717 15718 15719
          15720 15721 15722 15723 15724 15725
          15726 15727 15728 15729 15730 15731
          15732 15733 15734 15735 15736 15737
          15738 15739 15740 15741 15742 15743
          15744 15745 15746 15747 15748 15749
          15750 15751 15752 15753 15754 15755
          15756 15757 15758 15759 15760 15761
          15762 15763 15764 15765 15766 15767
          15768 15769 15770 15771 15772 15773
          15774 15775 15776 15777 15778 15779
          15780 15781 15782 15783 15784 15785
          15786 15787 15788 15789 15790 15791
          15792 15793 15794 15795 15796 15797
          15798 15799 15800 15801 15802 15803
          15804 15805 15806 15807 15808 15809
          15810 15811 15812 15813 15814 15815
          15816 15817 15818 15819 15820 15821
          15822 15823 15824 15825 15826 15827
          15828 15829 15830 15831 15832 15833
          15834 15835 15836 15837 15838 15839
          15840 15841 15842 15843 15844 15845
          15846 15847 15848 15849 15850 15851
          15852 15853 15854 15855 15856 15857
          15858 15859 15860 15861 15862 15863
          15864 15865 15866 15867 15868 15869
          15870 15871 15872 15873 15874 15875
          15876 15877 15878 15879 15880 15881
          15882 15883 15884 15885 15886 15887
          15888 15889 15890 15891 15892 15893
          15894 15895 15896 15897 15898 15899
          15900 15901 15902 15903 15904 15905
          15906 15907 15908 15909 15910 15911
          15912 15913 15914 15915 15916 15917
          15918 15919 15920 15921 15922 15923
          15924 15925 15926 15927 15928 15929
          15930 15931 15932 15933 15934 15935
          15936 15937 15938 15939 15940 15941
          15942 15943 15944 15945 15946 15947
          15948 15949 15950 15951 15952 15953
          15954 15955 15956 15957 15958 15959
          15960 15961 15962 15963 15964 15965
          15966 15967 15968 15969 15970 15971
          15972 15973 15974 15975 15976 15977
          15978 15979 15980 15981 15982 15983
          15984 15985 15986 15987 15988 15989
          15990 15991 15992 15993 15994 15995
          15996 15997 15998 15999 16000 16001
          16002 16003 16004 16005 16006 16007
          16008 16009 16010 16011 16012 16013
          16014 16015 16016 16017 16018 16019
          16020 16021 16022 16023 16024 16025
          16026 16027 16028 16029 16030 16031
          16032 16033 16034 16035 16036 16037
          16038 16039 16040 16041 16042 16043
          16044 16045 16046 16047 16048 16049
          16050 16051 16052 16053 16054 16055
          16056 16057 16058 16059 16060 16061
          16062 16063 16064 16065 16066 16067
          16068 16069 16070 16071 16072 16073
          16074 16075 16076 16077 16078 16079
          16080 16081 16082 16083 16084 16085
          16086 16087 16088 16089 16090 16091
          16092 16093 16094 16095 16096 16097
          16098 16099 16100 16101 16102 16103
          16104 16105 16106 16107 16108 16109
          16110 16111 16112 16113 16114 16115
          16116 16117 16118 16119 16120 16121
          16122 16123 16124 16125 16126 16127
          16128 16129 16130 16131 16132 16133
          16134 16135 16136 16137 16138 16139
          16140 16141 16142 16143 16144 16145
          16146 16147 16148 16149 16150 16151
          16152 16153 16154 16155 16156 16157
          16158 16159 16160 16161 16162 16163
          16164 16165 16166 16167 16168 16169
          16170 16171 16172 16173 16174 16175
          16176 16177 16178 16179 16180 16181
          16182 16183 16184 16185 16186 16187
          16188 16189 16190 16191 16192 16193
          16194 16195 16196 16197 16198 16199
          16200 16201 16202 16203 16204 16205
          16206 16207 16208 16209 16210 16211
          16212 16213 16214 16215 16216 16217
          16218 16219 16220 16221 16222 16223
          16224 16225 16226 16227 16228 16229
          16230 16231 16232 16233 16234 16235
          16236 16237 16238 16239 16240 16241
          16242 16243 16244 16245 16246 16247
          16248 16249 16250 16251 16252 16253
          16254 16255 16256 16257 16258 16259
          16260 16261 16262 16263 16264 16265
          16266 16267 16268 16269 16270 16271
          16272 16273 16274 16275 16276 16277
          16278 16279 16280 16281 16282 16283
          16284 16285 16286 16287 16288 16289
          16290 16291 16292 16293 16294 16295
          16296 16297 16298 16299 16300 16301
          16302 16303 16304 16305 16306 16307
          16308 16309 16310 16311 16312 16313
          16314 16315 16316 16317 16318 16319
          16320 16321 16322 16323 16324 16325
          16326 16327 16328 16329 16330 16331
          16332 16333 16334 16335 16336 16337
          16338 16339 16340 16341 16342 16343
          16344 16345 16346 16347 16348 16349
          16350 16351 16352 16353 16354 16355
          16356 16357 16358 16359 16360 16361
          16362 16363 16364 16365 16366 16367
          16368 16369 16370 16371 16372 16373
          16374 16375 16376 16377 16378 16379
          16380 16381 16382 16383 16384 16385
          16386 16387 16388 16389 16390 16391
          16392 16393 16394 16395 16396 16397
          16398 16399 16400 16401 16402 16403
          16404 16405 16406 16407 16408 16409
          16410 16411 16412 16413 16414 16415
          16416 16417 16418 16419 16420 16421
          16422 16423 16424 16425 16426 16427
          16428 16429 16430 16431 16432 16433
          16434 16435 16436 16437 16438 16439
          16440 16441 16442 16443 16444 16445
          16446 16447 16448 16449 16450 16451
          16452 16453 16454 16455 16456 16457
          16458 16459 16460 16461 16462 16463
          16464 16465 16466 16467 16468 16469
          16470 16471 16472 16473 16474 16475
          16476 16477 16478 16479 16480 16481
          16482 16483 16484 16485 16486 16487
          16488 16489 16490 16491 16492 16493
          16494 16495 16496 16497 16498 16499
          16500 16501 16502 16503 16504 16505
          16506 16507 16508 16509 16510 16511
          16512 16513 16514 16515 16516 16517
          16518 16519 16520 16521 16522 16523
          16524 16525 16526 16527 16528 16529
          16530 16531 16532 16533 16534 16535
          16536 16537 16538 16539 16540 16541
          16542 16543 16544 16545 16546 16547
          16548 16549 16550 16551 16552 16553
          16554 16555 16556 16557 16558 16559
          16560 16561 16562 16563 16564 16565
          16566 16567 16568 16569 16570 16571
          16572 16573 16574 16575 16576 16577
          16578 16579 16580 16581 16582 16583
          16584 16585 16586 16587 16588 16589
          16590 16591 16592 16593 16594 16595
          16596 16597 16598 16599 16600 16601
          16602 16603 16604 16605 16606 16607
          16608 16609 16610 16611 16612 16613
          16614 16615 16616 16617 16618 16619
          16620 16621 16622 16623 16624 16625
          16626 16627 16628 16629 16630 16631
          16632 16633 16634 16635 16636 16637
          16638 16639 16640 16641 16642 16643
          16644 16645 16646 16647 16648 16649
          16650 16651 16652 16653 16654 16655
          16656 16657 16658 16659 16660 16661
          16662 16663 16664 16665 16666 16667
          16668 16669 16670 16671 16672 16673
          16674 16675 16676 16677 16678 16679
          16680 16681 16682 16683 16684 16685
          16686 16687 16688 16689 16690 16691
          16692 16693 16694 16695 16696 16697
          16698 16699 16700 16701 16702 16703
          16704 16705 16706 16707 16708 16709
          16710 16711 16712 16713 16714 16715
          16716 16717 16718 16719 16720 16721
          16722 16723 16724 16725 16726 16727
          16728 16729 16730 16731 16732 16733
          16734 16735 16736 16737 16738 16739
          16740 16741 16742 16743 16744 16745
          16746 16747 16748 16749 16750 16751
          16752 16753 16754 16755 16756 16757
          16758 16759 16760 16761 16762 16763
          16764 16765 16766 16767 16768 16769
          16770 16771 16772 16773 16774 16775
          16776 16777 16778 16779 16780 16781
          16782 16783 16784 16785 16786 16787
          16788 16789 16790 16791 16792 16793
          16794 16795 16796 16797 16798 16799
          16800 16801 16802 16803 16804 16805
          16806 16807 16808 16809 16810 16811
          16812 16813 16814 16815 16816 16817
          16818 16819 16820 16821 16822 16823
          16824 16825 16826 16827 16828 16829
          16830 16831 16832 16833 16834 16835
          16836 16837 16838 16839 16840 16841
          16842 16843 16844 16845 16846 16847
          16848 16849 16850 16851 16852 16853
          16854 16855 16856 16857 16858 16859
          16860 16861 16862 16863 16864 16865
          16866 16867 16868 16869 16870 16871
          16872 16873 16874 16875 16876 16877
          16878 16879 16880 16881 16882 16883
          16884 16885 16886 16887 16888 16889
          16890 16891 16892 16893 16894 16895
          16896 16897 16898 16899 16900 16901
          16902 16903 16904 16905 16906 16907
          16908 16909 16910 16911 16912 16913
          16914 16915 16916 16917 16918 16919
          16920 16921 16922 16923 16924 16925
          16926 16927 16928 16929 16930 16931
          16932 16933 16934 16935 16936 16937
          16938 16939 16940 16941 16942 16943
          16944 16945 16946 16947 16948 16949
          16950 16951 16952 16953 16954 16955
          16956 16957 16958 16959 16960 16961
          16962 16963 16964 16965 16966 16967
          16968 16969 16970 16971 16972 16973
          16974 16975 16976 16977 16978 16979
          16980 16981 16982 16983 16984 16985
          16986 16987 16988 16989 16990 16991
          16992 16993 16994 16995 16996 16997
          16998 16999 17000 17001 17002 17003
          17004 17005 17006 17007 17008 17009
          17010 17011 17012 17013 17014 17015
          17016 17017 17018 17019 17020 17021
          17022 17023 17024 17025 17026 17027
          17028 17029 17030 17031 17032 17033
          17034 17035 17036 17037 17038 17039
          17040 17041 17042 17043 17044 17045
          17046 17047 17048 17049 17050 17051
          17052 17053 17054 17055 17056 17057
          17058 17059 17060 17061 17062 17063
          17064 17065 17066 17067 17068 17069
          17070 17071 17072 17073 17074 17075
          17076 17077 17078 17079 17080 17081
          17082 17083 17084 17085 17086 17087
          17088 17089 17090 17091 17092 17093
          17094 17095 17096 17097 17098 17099
          17100 17101 17102 17103 17104 17105
          17106 17107 17108 17109 17110 17111
          17112 17113 17114 17115 17116 17117
          17118 17119 17120 17121 17122 17123
          17124 17125 17126 17127 17128 17129
          17130 17131 17132 17133 17134 17135
          17136 17137 17138 17139 17140 17141
          17142 17143 17144 17145 17146 17147
          17148 17149 17150 17151 17152 17153
          17154 17155 17156 17157 17158 17159
          17160 17161 17162 17163 17164 17165
          17166 17167 17168 17169 17170 17171
          17172 17173 17174 17175 17176 17177
          17178 17179 17180 17181 17182 17183
          17184 17185 17186 17187 17188 17189
          17190 17191 17192 17193 17194 17195
          17196 17197 17198 17199 17200 17201
          17202 17203 17204 17205 17206 17207
          17208 17209 17210 17211 17212 17213
          17214 17215 17216 17217 17218 17219
          17220 17221 17222 17223 17224 17225
          17226 17227 17228 17229 17230 17231
          17232 17233 17234 17235 17236 17237
          17238 17239 17240 17241 17242 17243
          17244 17245 17246 17247 17248 17249
          17250 17251 17252 17253 17254 17255
          17256 17257 17258 17259 17260 17261
          17262 17263 17264 17265 17266 17267
          17268 17269 17270 17271 17272 17273
          17274 17275 17276 17277 17278 17279
          17280 17281 17282 17283 17284 17285
          17286 17287 17288 17289 17290 17291
          17292 17293 17294 17295 17296 17297
          17298 17299 17300 17301 17302 17303
          17304 17305 17306 17307 17308 17309
          17310 17311 17312 17313 17314 17315
          17316 17317 17318 17319 17320 17321
          17322 17323 17324 17325 17326 17327
          17328 17329 17330 17331 17332 17333
          17334 17335 17336 17337 17338 17339
          17340 17341 17342 17343 17344 17345
          17346 17347 17348 17349 17350 17351
          17352 17353 17354 17355 17356 17357
          17358 17359 17360 17361 17362 17363
          17364 17365 17366 17367 17368 17369
          17370 17371 17372 17373 17374 17375
          17376 17377 17378 17379 17380 17381
          17382 17383 17384 17385 17386 17387
          17388 17389 17390 17391 17392 17393
          17394 17395 17396 17397 17398 17399
          17400 17401 17402 17403 17404 17405
          17406 17407 17408 17409 17410 17411
          17412 17413 17414 17415 17416 17417
          17418 17419 17420 17421 17422 17423
          17424 17425 17426 17427 17428 17429
          17430 17431 17432 17433 17434 17435
          17436 17437 17438 17439 17440 17441
          17442 17443 17444 17445 17446 17447
          17448 17449 17450 17451 17452 17453
          17454 17455 17456 17457 17458 17459
          17460 17461 17462 17463 17464 17465
          17466 17467 17468 17469 17470 17471
          17472 17473 17474 17475 17476 17477
          17478 17479 17480 17481 17482 17483
          17484 17485 17486 17487 17488 17489
          17490 17491 17492 17493 17494 17495
          17496 17497 17498 17499 17500 17501
          17502 17503 17504 17505 17506 17507
          17508 17509 17510 17511 17512 17513
          17514 17515 17516 17517 17518 17519
          17520 17521 17522 17523 17524 17525
          17526 17527 17528 17529 17530 17531
          17532 17533 17534 17535 17536 17537
          17538 17539 17540 17541 17542 17543
          17544 17545 17546 17547 17548 17549
          17550 17551 17552 17553 17554 17555
          17556 17557 17558 17559 17560 17561
          17562 17563 17564 17565 17566 17567
          17568 17569 17570 17571 17572 17573
          17574 17575 17576 17577 17578 17579
          17580 17581 17582 17583 17584 17585
          17586 17587 17588 17589 17590 17591
          17592 17593 17594 17595 17596 17597
          17598 17599 17600 17601 17602 17603
          17604 17605 17606 17607 17608 17609
          17610 17611 17612 17613 17614 17615
          17616 17617 17618 17619 17620 17621
          17622 17623 17624 17625 17626 17627
          17628 17629 17630 17631 17632 17633
          17634 17635 17636 17637 17638 17639
          17640 17641 17642 17643 17644 17645
          17646 17647 17648 17649 17650 17651
          17652 17653 17654 17655 17656 17657
          17658 17659 17660 17661 17662 17663
          17664 17665 17666 17667 17668 17669
          17670 17671 17672 17673 17674 17675
          17676 17677 17678 17679 17680 17681
          17682 17683 17684 17685 17686 17687
          17688 17689 17690 17691 17692 17693
          17694 17695 17696 17697 17698 17699
          17700 17701 17702 17703 17704 17705
          17706 17707 17708 17709 17710 17711
          17712 17713 17714 17715 17716 17717
          17718 17719 17720 17721 17722 17723
          17724 17725 17726 17727 17728 17729
          17730 17731 17732 17733 17734 17735
          17736 17737 17738 17739 17740 17741
          17742 17743 17744 17745 17746 17747
          17748 17749 17750 17751 17752 17753
          17754 17755 17756 17757 17758 17759
          17760 17761 17762 17763 17764 17765
          17766 17767 17768 17769 17770 17771
          17772 17773 17774 17775 17776 17777
          17778 17779 17780 17781 17782 17783
          17784 17785 17786 17787 17788 17789
          17790 17791 17792 17793 17794 17795
          17796 17797 17798 17799 17800 17801
          17802 17803 17804 17805 17806 17807
          17808 17809 17810 17811 17812 17813
          17814 17815 17816 17817 17818 17819
          17820 17821 17822 17823 17824 17825
          17826 17827 17828 17829 17830 17831
          17832 17833 17834 17835 17836 17837
          17838 17839 17840 17841 17842 17843
          17844 17845 17846 17847 17848 17849
          17850 17851 17852 17853 17854 17855
          17856 17857 17858 17859 17860 17861
          17862 17863 17864 17865 17866 17867
          17868 17869 17870 17871 17872 17873
          17874 17875 17876 17877 17878 17879
          17880 17881 17882 17883 17884 17885
          17886 17887 17888 17889 17890 17891
          17892 17893 17894 17895 17896 17897
          17898 17899 17900 17901 17902 17903
          17904 17905 17906 17907 17908 17909
          17910 17911 17912 17913 17914 17915
          17916 17917 17918 17919 17920 17921
          17922 17923 17924 17925 17926 17927
          17928 17929 17930 17931 17932 17933
          17934 17935 17936 17937 17938 17939
          17940 17941 17942 17943 17944 17945
          17946 17947 17948 17949 17950 17951
          17952 17953 17954 17955 17956 17957
          17958 17959 17960 17961 17962 17963
          17964 17965 17966 17967 17968 17969
          17970 17971 17972 17973 17974 17975
          17976 17977 17978 17979 17980 17981
          17982 17983 17984 17985 17986 17987
          17988 17989 17990 17991 17992 17993
          17994 17995 17996 17997 17998 17999
          18000 18001 18002 18003 18004 18005
          18006 18007 18008 18009 18010 18011
          18012 18013 18014 18015 18016 18017
          18018 18019 18020 18021 18022 18023
          18024 18025 18026 18027 18028 18029
          18030 18031 18032 18033 18034 18035
          18036 18037 18038 18039 18040 18041
          18042 18043 18044 18045 18046 18047
          18048 18049 18050 18051 18052 18053
          18054 18055 18056 18057 18058 18059
          18060 18061 18062 18063 18064 18065
          18066 18067 18068 18069 18070 18071
          18072 18073 18074 18075 18076 18077
          18078 18079 18080 18081 18082 18083
          18084 18085 18086 18087 18088 18089
          18090 18091 18092 18093 18094 18095
          18096 18097 18098 18099 18100 18101
          18102 18103 18104 18105 18106 18107
          18108 18109 18110 18111 18112 18113
          18114 18115 18116 18117 18118 18119
          18120 18121 18122 18123 18124 18125
          18126 18127 18128 18129 18130 18131
          18132 18133 18134 18135 18136 18137
          18138 18139 18140 18141 18142 18143
          18144 18145 18146 18147 18148 18149
          18150 18151 18152 18153 18154 18155
          18156 18157 18158 18159 18160 18161
          18162 18163 18164 18165 18166 18167
          18168 18169 18170 18171 18172 18173
          18174 18175 18176 18177 18178 18179
          18180 18181 18182 18183 18184 18185
          18186 18187 18188 18189 18190 18191
          18192 18193 18194 18195 18196 18197
          18198 18199 18200 18201 18202 18203
          18204 18205 18206 18207 18208 18209
          18210 18211 18212 18213 18214 18215
          18216 18217 18218 18219 18220 18221
          18222 18223 18224 18225 18226 18227
          18228 18229 18230 18231 18232 18233
          18234 18235 18236 18237 18238 18239
          18240 18241 18242 18243 18244 18245
          18246 18247 18248 18249 18250 18251
          18252 18253 18254 18255 18256 18257
          18258 18259 18260 18261 18262 18263
          18264 18265 18266 18267 18268 18269
          18270 18271 18272 18273 18274 18275
          18276 18277 18278 18279 18280 18281
          18282 18283 18284 18285 18286 18287
          18288 18289 18290 18291 18292 18293
          18294 18295 18296 18297 18298 18299
          18300 18301 18302 18303 18304 18305
          18306 18307 18308 18309 18310 18311
          18312 18313 18314 18315 18316 18317
          18318 18319 18320 18321 18322 18323
          18324 18325 18326 18327 18328 18329
          18330 18331 18332 18333 18334 18335
          18336 18337 18338 18339 18340 18341
          18342 18343 18344 18345 18346 18347
          18348 18349 18350 18351 18352 18353
          18354 18355 18356 18357 18358 18359
          18360 18361 18362 18363 18364 18365
          18366 18367 18368 18369 18370 18371
          18372 18373 18374 18375 18376 18377
          18378 18379 18380 18381 18382 18383
          18384 18385 18386 18387 18388 18389
          18390 18391 18392 18393 18394 18395
          18396 18397 18398 18399 18400 18401
          18402 18403 18404 18405 18406 18407
          18408 18409 18410 18411 18412 18413
          18414 18415 18416 18417 18418 18419
          18420 18421 18422 18423 18424 18425
          18426 18427 18428 18429 18430 18431
          18432 18433 18434 18435 18436 18437
          18438 18439 18440 18441 18442 18443
          18444 18445 18446 18447 18448 18449
          18450 18451 18452 18453 18454 18455
          18456 18457 18458 18459 18460 18461
          18462 18463 18464 18465 18466 18467
          18468 18469 18470 18471 18472 18473
          18474 18475 18476 18477 18478 18479
          18480 18481 18482 18483 18484 18485
          18486 18487 18488 18489 18490 18491
          18492 18493 18494 18495 18496 18497
          18498 18499 18500 18501 18502 18503
          18504 18505 18506 18507 18508 18509
          18510 18511 18512 18513 18514 18515
          18516 18517 18518 18519 18520 18521
          18522 18523 18524 18525 18526 18527
          18528 18529 18530 18531 18532 18533
          18534 18535 18536 18537 18538 18539
          18540 18541 18542 18543 18544 18545
          18546 18547 18548 18549 18550 18551
          18552 18553 18554 18555 18556 18557
          18558 18559 18560 18561 18562 18563
          18564 18565 18566 18567 18568 18569
          18570 18571 18572 18573 18574 18575
          18576 18577 18578 18579 18580 18581
          18582 18583 18584 18585 18586 18587
          18588 18589 18590 18591 18592 18593
          18594 18595 18596 18597 18598 18599
          18600 18601 18602 18603 18604 18605
          18606 18607 18608 18609 18610 18611
          18612 18613 18614 18615 18616 18617
          18618 18619 18620 18621 18622 18623
          18624 18625 18626 18627 18628 18629
          18630 18631 18632 18633 18634 18635
          18636 18637 18638 18639 18640 18641
          18642 18643 18644 18645 18646 18647
          18648 18649 18650 18651 18652 18653
          18654 18655 18656 18657 18658 18659
          18660 18661 18662 18663 18664 18665
          18666 18667 18668 18669 18670 18671
          18672 18673 18674 18675 18676 18677
          18678 18679 18680 18681 18682 18683
          18684 18685 18686 18687 18688 18689
          18690 18691 18692 18693 18694 18695
          18696 18697 18698 18699 18700 18701
          18702 18703 18704 18705 18706 18707
          18708 18709 18710 18711 18712 18713
          18714 18715 18716 18717 18718 18719
          18720 18721 18722 18723 18724 18725
          18726 18727 18728 18729 18730 18731
          18732 18733 18734 18735 18736 18737
          18738 18739 18740 18741 18742 18743
          18744 18745 18746 18747 18748 18749
          18750 18751 18752 18753 18754 18755
          18756 18757 18758 18759 18760 18761
          18762 18763 18764 18765 18766 18767
          18768 18769 18770 18771 18772 18773
          18774 18775 18776 18777 18778 18779
          18780 18781 18782 18783 18784 18785
          18786 18787 18788 18789 18790 18791
          18792 18793 18794 18795 18796 18797
          18798 18799 18800 18801 18802 18803
          18804 18805 18806 18807 18808 18809
          18810 18811 18812 18813 18814 18815
          18816 18817 18818 18819 18820 18821
          18822 18823 18824 18825 18826 18827
          18828 18829 18830 18831 18832 18833
          18834 18835 18836 18837 18838 18839
          18840 18841 18842 18843 18844 18845
          18846 18847 18848 18849 18850 18851
          18852 18853 18854 18855 18856 18857
          18858 18859 18860 18861 18862 18863
          18864 18865 18866 18867 18868 18869
          18870 18871 18872 18873 18874 18875
          18876 18877 18878 18879 18880 18881
          18882 18883 18884 18885 18886 18887
          18888 18889 18890 18891 18892 18893
          18894 18895 18896 18897 18898 18899
          18900 18901 18902 18903 18904 18905
          18906 18907 18908 18909 18910 18911
          18912 18913 18914 18915 18916 18917
          18918 18919 18920 18921 18922 18923
          18924 18925 18926 18927 18928 18929
          18930 18931 18932 18933 18934 18935
          18936 18937 18938 18939 18940 18941
          18942 18943 18944 18945 18946 18947
          18948 18949 18950 18951 18952 18953
          18954 18955 18956 18957 18958 18959
          18960 18961 18962 18963 18964 18965
          18966 18967 18968 18969 18970 18971
          18972 18973 18974 18975 18976 18977
          18978 18979 18980 18981 18982 18983
          18984 18985 18986 18987 18988 18989
          18990 18991 18992 18993 18994 18995
          18996 18997 18998 18999 19000 19001
          19002 19003 19004 19005 19006 19007
          19008 19009 19010 19011 19012 19013
          19014 19015 19016 19017 19018 19019
          19020 19021 19022 19023 19024 19025
          19026 19027 19028 19029 19030 19031
          19032 19033 19034 19035 19036 19037
          19038 19039 19040 19041 19042 19043
          19044 19045 19046 19047 19048 19049
          19050 19051 19052 19053 19054 19055
          19056 19057 19058 19059 19060 19061
          19062 19063 19064 19065 19066 19067
          19068 19069 19070 19071 19072 19073
          19074 19075 19076 19077 19078 19079
          19080 19081 19082 19083 19084 19085
          19086 19087 19088 19089 19090 19091
          19092 19093 19094 19095 19096 19097
          19098 19099 19100 19101 19102 19103
          19104 19105 19106 19107 19108 19109
          19110 19111 19112 19113 19114 19115
          19116 19117 19118 19119 19120 19121
          19122 19123 19124 19125 19126 19127
          19128 19129 19130 19131 19132 19133
          19134 19135 19136 19137 19138 19139
          19140 19141 19142 19143 19144 19145
          19146 19147 19148 19149 19150 19151
          19152 19153 19154 19155 19156 19157
          19158 19159 19160 19161 19162 19163
          19164 19165 19166 19167 19168 19169
          19170 19171 19172 19173 19174 19175
          19176 19177 19178 19179 19180 19181
          19182 19183 19184 19185 19186 19187
          19188 19189 19190 19191 19192 19193
          19194 19195 19196 19197 19198 19199
          19200 19201 19202 19203 19204 19205
          19206 19207 19208 19209 19210 19211
          19212 19213 19214 19215 19216 19217
          19218 19219 19220 19221 19222 19223
          19224 19225 19226 19227 19228 19229
          19230 19231 19232 19233 19234 19235
          19236 19237 19238 19239 19240 19241
          19242 19243 19244 19245 19246 19247
          19248 19249 19250 19251 19252 19253
          19254 19255 19256 19257 19258 19259
          19260 19261 19262 19263 19264 19265
          19266 19267 19268 19269 19270 19271
          19272 19273 19274 19275 19276 19277
          19278 19279 19280 19281 19282 19283
          19284 19285 19286 19287 19288 19289
          19290 19291 19292 19293 19294 19295
          19296 19297 19298 19299 19300 19301
          19302 19303 19304 19305 19306 19307
          19308 19309 19310 19311 19312 19313
          19314 19315 19316 19317 19318 19319
          19320 19321 19322 19323 19324 19325
          19326 19327 19328 19329 19330 19331
          19332 19333 19334 19335 19336 19337
          19338 19339 19340 19341 19342 19343
          19344 19345 19346 19347 19348 19349
          19350 19351 19352 19353 19354 19355
          19356 19357 19358 19359 19360 19361
          19362 19363 19364 19365 19366 19367
          19368 19369 19370 19371 19372 19373
          19374 19375 19376 19377 19378 19379
          19380 19381 19382 19383 19384 19385
          19386 19387 19388 19389 19390 19391
          19392 19393 19394 19395 19396 19397
          19398 19399 19400 19401 19402 19403
          19404 19405 19406 19407 19408 19409
          19410 19411 19412 19413 19414 19415
          19416 19417 19418 19419 19420 19421
          19422 19423 19424 19425 19426 19427
          19428 19429 19430 19431 19432 19433
          19434 19435 19436 19437 19438 19439
          19440 19441 19442 19443 19444 19445
          19446 19447 19448 19449 19450 19451
          19452 19453 19454 19455 19456 19457
          19458 19459 19460 19461 19462 19463
          19464 19465 19466 19467 19468 19469
          19470 19471 19472 19473 19474 19475
          19476 19477 19478 19479 19480 19481
          19482 19483 19484 19485 19486 19487
          19488 19489 19490 19491 19492 19493
          19494 19495 19496 19497 19498 19499
          19500 19501 19502 19503 19504 19505
          19506 19507 19508 19509 19510 19511
          19512 19513 19514 19515 19516 19517
          19518 19519 19520 19521 19522 19523
          19524 19525 19526 19527 19528 19529
          19530 19531 19532 19533 19534 19535
          19536 19537 19538 19539 19540 19541
          19542 19543 19544 19545 19546 19547
          19548 19549 19550 19551 19552 19553
          19554 19555 19556 19557 19558 19559
          19560 19561 19562 19563 19564 19565
          19566 19567 19568 19569 19570 19571
          19572 19573 19574 19575 19576 19577
          19578 19579 19580 19581 19582 19583
          19584 19585 19586 19587 19588 19589
          19590 19591 19592 19593 19594 19595
          19596 19597 19598 19599 19600 19601
          19602 19603 19604 19605 19606 19607
          19608 19609 19610 19611 19612 19613
          19614 19615 19616 19617 19618 19619
          19620 19621 19622 19623 19624 19625
          19626 19627 19628 19629 19630 19631
          19632 19633 19634 19635 19636 19637
          19638 19639 19640 19641 19642 19643
          19644 19645 19646 19647 19648 19649
          19650 19651 19652 19653 19654 19655
          19656 19657 19658 19659 19660 19661
          19662 19663 19664 19665 19666 19667
          19668 19669 19670 19671 19672 19673
          19674 19675 19676 19677 19678 19679
          19680 19681 19682 19683 19684 19685
          19686 19687 19688 19689 19690 19691
          19692 19693 19694 19695 19696 19697
          19698 19699 19700 19701 19702 19703
          19704 19705 19706 19707 19708 19709
          19710 19711 19712 19713 19714 19715
          19716 19717 19718 19719 19720 19721
          19722 19723 19724 19725 19726 19727
          19728 19729 19730 19731 19732 19733
          19734 19735 19736 19737 19738 19739
          19740 19741 19742 19743 19744 19745
          19746 19747 19748 19749 19750 19751
          19752 19753 19754 19755 19756 19757
          19758 19759 19760 19761 19762 19763
          19764 19765 19766 19767 19768 19769
          19770 19771 19772 19773 19774 19775
          19776 19777 19778 19779 19780 19781
          19782 19783 19784 19785 19786 19787
          19788 19789 19790 19791 19792 19793
          19794 19795 19796 19797 19798 19799
          19800 19801 19802 19803 19804 19805
          19806 19807 19808 19809 19810 19811
          19812 19813 19814 19815 19816 19817
          19818 19819 19820 19821 19822 19823
          19824 19825 19826 19827 19828 19829
          19830 19831 19832 19833 19834 19835
          19836 19837 19838 19839 19840 19841
          19842 19843 19844 19845 19846 19847
          19848 19849 19850 19851 19852 19853
          19854 19855 19856 19857 19858 19859
          19860 19861 19862 19863 19864 19865
          19866 19867 19868 19869 19870 19871
          19872 19873 19874 19875 19876 19877
          19878 19879 19880 19881 19882 19883
          19884 19885 19886 19887 19888 19889
          19890 19891 19892 19893 19894 19895
          19896 19897 19898 19899 19900 19901
          19902 19903 19904 19905 19906 19907
          19908 19909 19910 19911 19912 19913
          19914 19915 19916 19917 19918 19919
          19920 19921 19922 19923 19924 19925
          19926 19927 19928 19929 19930 19931
          19932 19933 19934 19935 19936 19937
          19938 19939 19940 19941 19942 19943
          19944 19945 19946 19947 19948 19949
          19950 19951 19952 19953 19954 19955
          19956 19957 19958 19959 19960 19961
          19962 19963 19964 19965 19966 19967
          19968 19969 19970 19971 19972 19973
          19974 19975 19976 19977 19978 19979
          19980 19981 19982 19983 19984 19985
          19986 19987 19988 19989 19990 19991
          19992 19993 19994 19995 19996 19997
          19998 19999 20000 20001 20002 20003
          20004 20005 20006 20007 20008 20009
          20010 20011 20012 20013 20014 20015
          20016 20017 20018 20019 20020 20021
          20022 20023 20024 20025 20026 20027
          20028 20029 20030 20031 20032 20033
          20034 20035 20036 20037 20038 20039
          20040 20041 20042 20043 20044 20045
          20046 20047 20048 20049 20050 20051
          20052 20053 20054 20055 20056 20057
          20058 20059 20060 20061 20062 20063
          20064 20065 20066 20067 20068 20069
          20070 20071 20072 20073 20074 20075
          20076 20077 20078 20079 20080 20081
          20082 20083 20084 20085 20086 20087
          20088 20089 20090 20091 20092 20093
          20094 20095 20096 20097 20098 20099
          20100 20101 20102 20103 20104 20105
          20106 20107 20108 20109 20110 20111
          20112 20113 20114 20115 20116 20117
          20118 20119 20120 20121 20122 20123
          20124 20125 20126 20127 20128 20129
          20130 20131 20132 20133 20134 20135
          20136 20137 20138 20139 20140 20141
          20142 20143 20144 20145 20146 20147
          20148 20149 20150 20151 20152 20153
          20154 20155 20156 20157 20158 20159
          20160 20161 20162 20163 20164 20165
          20166 20167 20168 20169 20170 20171
          20172 20173 20174 20175 20176 20177
          20178 20179 20180 20181 20182 20183
          20184 20185 20186 20187 20188 20189
          20190 20191 20192 20193 20194 20195
          20196 20197 20198 20199 20200 20201
          20202 20203 20204 20205 20206 20207
          20208 20209 20210 20211 20212 20213
          20214 20215 20216 20217 20218 20219
          20220 20221 20222 20223 20224 20225
          20226 20227 20228 20229 20230 20231
          20232 20233 20234 20235 20236 20237
          20238 20239 20240 20241 20242 20243
          20244 20245 20246 20247 20248 20249
          20250 20251 20252 20253 20254 20255
          20256 20257 20258 20259 20260 20261
          20262 20263 20264 20265 20266 20267
          20268 20269 20270 20271 20272 20273
          20274 20275 20276 20277 20278 20279
          20280 20281 20282 20283 20284 20285
          20286 20287 20288 20289 20290 20291
          20292 20293 20294 20295 20296 20297
          20298 20299 20300 20301 20302 20303
          20304 20305 20306 20307 20308 20309
          20310 20311 20312 20313 20314 20315
          20316 20317 20318 20319 20320 20321
          20322 20323 20324 20325 20326 20327
          20328 20329 20330 20331 20332 20333
          20334 20335 20336 20337 20338 20339
          20340 20341 20342 20343 20344 20345
          20346 20347 20348 20349 20350 20351
          20352 20353 20354 20355 20356 20357
          20358 20359 20360 20361 20362 20363
          20364 20365 20366 20367 20368 20369
          20370 20371 20372 20373 20374 20375
          20376 20377 20378 20379 20380 20381
          20382 20383 20384 20385 20386 20387
          20388 20389 20390 20391 20392 20393
          20394 20395 20396 20397 20398 20399
          20400 20401 20402 20403 20404 20405
          20406 20407 20408 20409 20410 20411
          20412 20413 20414 20415 20416 20417
          20418 20419 20420 20421 20422 20423
          20424 20425 20426 20427 20428 20429
          20430 20431 20432 20433 20434 20435
          20436 20437 20438 20439 20440 20441
          20442 20443 20444 20445 20446 20447
          20448 20449 20450 20451 20452 20453
          20454 20455 20456 20457 20458 20459
          20460 20461 20462 20463 20464 20465
          20466 20467 20468 20469 20470 20471
          20472 20473 20474 20475 20476 20477
          20478 20479 20480 20481 20482 20483
          20484 20485 20486 20487 20488 20489
          20490 20491 20492 20493 20494 20495
          20496 20497 20498 20499 20500 20501
          20502 20503 20504 20505 20506 20507
          20508 20509 20510 20511 20512 20513
          20514 20515 20516 20517 20518 20519
          20520 20521 20522 20523 20524 20525
          20526 20527 20528 20529 20530 20531
          20532 20533 20534 20535 20536 20537
          20538 20539 20540 20541 20542 20543
          20544 20545 20546 20547 20548 20549
          20550 20551 20552 20553 20554 20555
          20556 20557 20558 20559 20560 20561
          20562 20563 20564 20565 20566 20567
          20568 20569 20570 20571 20572 20573
          20574 20575 20576 20577 20578 20579
          20580 20581 20582 20583 20584 20585
          20586 20587 20588 20589 20590 20591
          20592 20593 20594 20595 20596 20597
          20598 20599 20600 20601 20602 20603
          20604 20605 20606 20607 20608 20609
          20610 20611 20612 20613 20614 20615
          20616 20617 20618 20619 20620 20621
          20622 20623 20624 20625 20626 20627
          20628 20629 20630 20631 20632 20633
          20634 20635 20636 20637 20638 20639
          20640 20641 20642 20643 20644 20645
          20646 20647 20648 20649 20650 20651
          20652 20653 20654 20655 20656 20657
          20658 20659 20660 20661 20662 20663
          20664 20665 20666 20667 20668 20669
          20670 20671 20672 20673 20674 20675
          20676 20677 20678 20679 20680 20681
          20682 20683 20684 20685 20686 20687
          20688 20689 20690 20691 20692 20693
          20694 20695 20696 20697 20698 20699
          20700 20701 20702 20703 20704 20705
          20706 20707 20708 20709 20710 20711
          20712 20713 20714 20715 20716 20717
          20718 20719 20720 20721 20722 20723
          20724 20725 20726 20727 20728 20729
          20730 20731 20732 20733 20734 20735
          20736 20737 20738 20739 20740 20741
          20742 20743 20744 20745 20746 20747
          20748 20749 20750 20751 20752 20753
          20754 20755 20756 20757 20758 20759
          20760 20761 20762 20763 20764 20765
          20766 20767 20768 20769 20770 20771
          20772 20773 20774 20775 20776 20777
          20778 20779 20780 20781 20782 20783
          20784 20785 20786 20787 20788 20789
          20790 20791 20792 20793 20794 20795
          20796 20797 20798 20799 20800 20801
          20802 20803 20804 20805 20806 20807
          20808 20809 20810 20811 20812 20813
          20814 20815 20816 20817 20818 20819
          20820 20821 20822 20823 20824 20825
          20826 20827 20828 20829 20830 20831
          20832 20833 20834 20835 20836 20837
          20838 20839 20840 20841 20842 20843
          20844 20845 20846 20847 20848 20849
          20850 20851 20852 20853 20854 20855
          20856 20857 20858 20859 20860 20861
          20862 20863 20864 20865 20866 20867
          20868 20869 20870 20871 20872 20873
          20874 20875 20876 20877 20878 20879
          20880 20881 20882 20883 20884 20885
          20886 20887 20888 20889 20890 20891
          20892 20893 20894 20895 20896 20897
          20898 20899 20900 20901 20902 20903
          20904 20905 20906 20907 20908 20909
          20910 20911 20912 20913 20914 20915
          20916 20917 20918 20919 20920 20921
          20922 20923 20924 20925 20926 20927
          20928 20929 20930 20931 20932 20933
          20934 20935 20936 20937 20938 20939
          20940 20941 20942 20943 20944 20945
          20946 20947 20948 20949 20950 20951
          20952 20953 20954 20955 20956 20957
          20958 20959 20960 20961 20962 20963
          20964 20965 20966 20967 20968 20969
          20970 20971 20972 20973 20974 20975
          20976 20977 20978 20979 20980 20981
          20982 20983 20984 20985 20986 20987
          20988 20989 20990 20991 20992 20993
          20994 20995 20996 20997 20998 20999
          21000 21001 21002 21003 21004 21005
          21006 21007 21008 21009 21010 21011
          21012 21013 21014 21015 21016 21017
          21018 21019 21020 21021 21022 21023
          21024 21025 21026 21027 21028 21029
          21030 21031 21032 21033 21034 21035
          21036 21037 21038 21039 21040 21041
          21042 21043 21044 21045 21046 21047
          21048 21049 21050 21051 21052 21053
          21054 21055 21056 21057 21058 21059
          21060 21061 21062 21063 21064 21065
          21066 21067 21068 21069 21070 21071
          21072 21073 21074 21075 21076 21077
          21078 21079 21080 21081 21082 21083
          21084 21085 21086 21087 21088 21089
          21090 21091 21092 21093 21094 21095
          21096 21097 21098 21099 21100 21101
          21102 21103 21104 21105 21106 21107
          21108 21109 21110 21111 21112 21113
          21114 21115 21116 21117 21118 21119
          21120 21121 21122 21123 21124 21125
          21126 21127 21128 21129 21130 21131
          21132 21133 21134 21135 21136 21137
          21138 21139 21140 21141 21142 21143
          21144 21145 21146 21147 21148 21149
          21150 21151 21152 21153 21154 21155
          21156 21157 21158 21159 21160 21161
          21162 21163 21164 21165 21166 21167
          21168 21169 21170 21171 21172 21173
          21174 21175 21176 21177 21178 21179
          21180 21181 21182 21183 21184 21185
          21186 21187 21188 21189 21190 21191
          21192 21193 21194 21195 21196 21197
          21198 21199 21200 21201 21202 21203
          21204 21205 21206 21207 21208 21209
          21210 21211 21212 21213 21214 21215
          21216 21217 21218 21219 21220 21221
          21222 21223 21224 21225 21226 21227
          21228 21229 21230 21231 21232 21233
          21234 21235 21236 21237 21238 21239
          21240 21241 21242 21243 21244 21245
          21246 21247 21248 21249 21250 21251
          21252 21253 21254 21255 21256 21257
          21258 21259 21260 21261 21262 21263
          21264 21265 21266 21267 21268 21269
          21270 21271 21272 21273 21274 21275
          21276 21277 21278 21279 21280 21281
          21282 21283 21284 21285 21286 21287
          21288 21289 21290 21291 21292 21293
          21294 21295 21296 21297 21298 21299
          21300 21301 21302 21303 21304 21305
          21306 21307 21308 21309 21310 21311
          21312 21313 21314 21315 21316 21317
          21318 21319 21320 21321 21322 21323
          21324 21325 21326 21327 21328 21329
          21330 21331 21332 21333 21334 21335
          21336 21337 21338 21339 21340 21341
          21342 21343 21344 21345 21346 21347
          21348 21349 21350 21351 21352 21353
          21354 21355 21356 21357 21358 21359
          21360 21361 21362 21363 21364 21365
          21366 21367 21368 21369 21370 21371
          21372 21373 21374 21375 21376 21377
          21378 21379 21380 21381 21382 21383
          21384 21385 21386 21387 21388 21389
          21390 21391 21392 21393 21394 21395
          21396 21397 21398 21399 21400 21401
          21402 21403 21404 21405 21406 21407
          21408 21409 21410 21411 21412 21413
          21414 21415 21416 21417 21418 21419
          21420 21421 21422 21423 21424 21425
          21426 21427 21428 21429 21430 21431
          21432 21433 21434 21435 21436 21437
          21438 21439 21440 21441 21442 21443
          21444 21445 21446 21447 21448 21449
          21450 21451 21452 21453 21454 21455
          21456 21457 21458 21459 21460 21461
          21462 21463 21464 21465 21466 21467
          21468 21469 21470 21471 21472 21473
          21474 21475 21476 21477 21478 21479
          21480 21481 21482 21483 21484 21485
          21486 21487 21488 21489 21490 21491
          21492 21493 21494 21495 21496 21497
          21498 21499 21500 21501 21502 21503
          21504 21505 21506 21507 21508 21509
          21510 21511 21512 21513 21514 21515
          21516 21517 21518 21519 21520 21521
          21522 21523 21524 21525 21526 21527
          21528 21529 21530 21531 21532 21533
          21534 21535 21536 21537 21538 21539
          21540 21541 21542 21543 21544 21545
          21546 21547 21548 21549 21550 21551
          21552 21553 21554 21555 21556 21557
          21558 21559 21560 21561 21562 21563
          21564 21565 21566 21567 21568 21569
          21570 21571 21572 21573 21574 21575
          21576 21577 21578 21579 21580 21581
          21582 21583 21584 21585 21586 21587
          21588 21589 21590 21591 21592 21593
          21594 21595 21596 21597 21598 21599
          21600 21601 21602 21603 21604 21605
          21606 21607 21608 21609 21610 21611
          21612 21613 21614 21615 21616 21617
          21618 21619 21620 21621 21622 21623
          21624 21625 21626 21627 21628 21629
          21630 21631 21632 21633 21634 21635
          21636 21637 21638 21639 21640 21641
          21642 21643 21644 21645 21646 21647
          21648 21649 21650 21651 21652 21653
          21654 21655 21656 21657 21658 21659
          21660 21661 21662 21663 21664 21665
          21666 21667 21668 21669 21670 21671
          21672 21673 21674 21675 21676 21677
          21678 21679 21680 21681 21682 21683
          21684 21685 21686 21687 21688 21689
          21690 21691 21692 21693 21694 21695
          21696 21697 21698 21699 21700 21701
          21702 21703 21704 21705 21706 21707
          21708 21709 21710 21711 21712 21713
          21714 21715 21716 21717 21718 21719
          21720 21721 21722 21723 21724 21725
          21726 21727 21728 21729 21730 21731
          21732 21733 21734 21735 21736 21737
          21738 21739 21740 21741 21742 21743
          21744 21745 21746 21747 21748 21749
          21750 21751 21752 21753 21754 21755
          21756 21757 21758 21759 21760 21761
          21762 21763 21764 21765 21766 21767
          21768 21769 21770 21771 21772 21773
          21774 21775 21776 21777 21778 21779
          21780 21781 21782 21783 21784 21785
          21786 21787 21788 21789 21790 21791
          21792 21793 21794 21795 21796 21797
          21798 21799 21800 21801 21802 21803
          21804 21805 21806 21807 21808 21809
          21810 21811 21812 21813 21814 21815
          21816 21817 21818 21819 21820 21821
          21822 21823 21824 21825 21826 21827
          21828 21829 21830 21831 21832 21833
          21834 21835 21836 21837 21838 21839
          21840 21841 21842 21843 21844 21845
          21846 21847 21848 21849 21850 21851
          21852 21853 21854 21855 21856 21857
          21858 21859 21860 21861 21862 21863
          21864 21865 21866 21867
        </DataArray>
        <DataArray type="Int64" Name="offsets" format="ascii" RangeMin="4" RangeMax="21868">
          4 8 12 16 20 24
          28 32 36 40 44 48
          52 56 60 64 68 72
          76 80 84 88 92 96
          100 104 108 112 116 120
          124 128 132 136 140 144
          148 152 156 160 164 168
          172 176 180 184 188 192
          196 200 204 208 212 216
          220 224 228 232 236 240
          244 248 252 256 260 264
          268 272 276 280 284 288
          292 296 300 304 308 312
          316 320 324 328 332 336
          340 344 348 352 356 360
          364 368 372 376 380 384
          388 392 396 400 404 408
          412 416 420 424 428 432
          436 440 444 448 452 456
          460 464 468 472 476 480
          484 488 492 496 500 504
          508 512 516 520 524 528
          532 536 540 544 548 552
          556 560 564 568 572 576
          580 584 588 592 596 600
          604 608 612 616 620 624
          628 632 636 640 644 648
          652 656 660 664 668 672
          676 680 684 688 692 696
          700 704 708 712 716 720
          724 728 732 736 740 744
          748 752 756 760 764 768
          772 776 780 784 788 792
          796 800 804 808 812 816
          820 824 828 832 836 840
          844 848 852 856 860 864
          868 872 876 880 884 888
          892 896 900 904 908 912
          916 920 924 928 932 936
          940 944 948 952 956 960
          964 968 972 976 980 984
          988 992 996 1000 1004 1008
          1012 1016 1020 1024 1028 1032
          1036 1040 1044 1048 1052 1056
          1060 1064 1068 1072 1076 1080
          1084 1088 1092 1096 1100 1104
          1108 1112 1116 1120 1124 1128
          1132 1136 1140 1144 1148 1152
          1156 1160 1164 1168 1172 1176
          1180 1184 1188 1192 1196 1200
          1204 1208 1212 1216 1220 1224
          1228 1232 1236 1240 1244 1248
          1252 1256 1260 1264 1268 1272
          1276 1280 1284 1288 1292 1296
          1300 1304 1308 1312 1316 1320
          1324 1328 1332 1336 1340 1344
          1348 1352 1356 1360 1364 1368
          1372 1376 1380 1384 1388 1392
          1396 1400 1404 1408 1412 1416
          1420 1424 1428 1432 1436 1440
          1444 1448 1452 1456 1460 1464
          1468 1472 1476 1480 1484 1488
          1492 1496 1500 1504 1508 1512
          1516 1520 1524 1528 1532 1536
          1540 1544 1548 1552 1556 1560
          1564 1568 1572 1576 1580 1584
          1588 1592 1596 1600 1604 1608
          1612 1616 1620 1624 1628 1632
          1636 1640 1644 1648 1652 1656
          1660 1664 1668 1672 1676 1680
          1684 1688 1692 1696 1700 1704
          1708 1712 1716 1720 1724 1728
          1732 1736 1740 1744 1748 1752
          1756 1760 1764 1768 1772 1776
          1780 1784 1788 1792 1796 1800
          1804 1808 1812 1816 1820 1824
          1828 1832 1836 1840 1844 1848
          1852 1856 1860 1864 1868 1872
          1876 1880 1884 1888 1892 1896
          1900 1904 1908 1912 1916 1920
          1924 1928 1932 1936 1940 1944
          1948 1952 1956 1960 1964 1968
          1972 1976 1980 1984 1988 1992
          1996 2000 2004 2008 2012 2016
          2020 2024 2028 2032 2036 2040
          2044 2048 2052 2056 2060 2064
          2068 2072 2076 2080 2084 2088
          2092 2096 2100 2104 2108 2112
          2116 2120 2124 2128 2132 2136
          2140 2144 2148 2152 2156 2160
          2164 2168 2172 2176 2180 2184
          2188 2192 2196 2200 2204 2208
          2212 2216 2220 2224 2228 2232
          2236 2240 2244 2248 2252 2256
          2260 2264 2268 2272 2276 2280
          2284 2288 2292 2296 2300 2304
          2308 2312 2316 2320 2324 2328
          2332 2336 2340 2344 2348 2352
          2356 2360 2364 2368 2372 2376
          2380 2384 2388 2392 2396 2400
          2404 2408 2412 2416 2420 2424
          2428 2432 2436 2440 2444 2448
          2452 2456 2460 2464 2468 2472
          2476 2480 2484 2488 2492 2496
          2500 2504 2508 2512 2516 2520
          2524 2528 2532 2536 2540 2544
          2548 2552 2556 2560 2564 2568
          2572 2576 2580 2584 2588 2592
          2596 2600 2604 2608 2612 2616
          2620 2624 2628 2632 2636 2640
          2644 2648 2652 2656 2660 2664
          2668 2672 2676 2680 2684 2688
          2692 2696 2700 2704 2708 2712
          2716 2720 2724 2728 2732 2736
          2740 2744 2748 2752 2756 2760
          2764 2768 2772 2776 2780 2784
          2788 2792 2796 2800 2804 2808
          2812 2816 2820 2824 2828 2832
          2836 2840 2844 2848 2852 2856
          2860 2864 2868 2872 2876 2880
          2884 2888 2892 2896 2900 2904
          2908 2912 2916 2920 2924 2928
          2932 2936 2940 2944 2948 2952
          2956 2960 2964 2968 2972 2976
          2980 2984 2988 2992 2996 3000
          3004 3008 3012 3016 3020 3024
          3028 3032 3036 3040 3044 3048
          3052 3056 3060 3064 3068 3072
          3076 3080 3084 3088 3092 3096
          3100 3104 3108 3112 3116 3120
          3124 3128 3132 3136 3140 3144
          3148 3152 3156 3160 3164 3168
          3172 3176 3180 3184 3188 3192
          3196 3200 3204 3208 3212 3216
          3220 3224 3228 3232 3236 3240
          3244 3248 3252 3256 3260 3264
          3268 3272 3276 3280 3284 3288
          3292 3296 3300 3304 3308 3312
          3316 3320 3324 3328 3332 3336
          3340 3344 3348 3352 3356 3360
          3364 3368 3372 3376 3380 3384
          3388 3392 3396 3400 3404 3408
          3412 3416 3420 3424 3428 3432
          3436 3440 3444 3448 3452 3456
          3460 3464 3468 3472 3476 3480
          3484 3488 3492 3496 3500 3504
          3508 3512 3516 3520 3524 3528
          3532 3536 3540 3544 3548 3552
          3556 3560 3564 3568 3572 3576
          3580 3584 3588 3592 3596 3600
          3604 3608 3612 3616 3620 3624
          3628 3632 3636 3640 3644 3648
          3652 3656 3660 3664 3668 3672
          3676 3680 3684 3688 3692 3696
          3700 3704 3708 3712 3716 3720
          3724 3728 3732 3736 3740 3744
          3748 3752 3756 3760 3764 3768
          3772 3776 3780 3784 3788 3792
          3796 3800 3804 3808 3812 3816
          3820 3824 3828 3832 3836 3840
          3844 3848 3852 3856 3860 3864
          3868 3872 3876 3880 3884 3888
          3892 3896 3900 3904 3908 3912
          3916 3920 3924 3928 3932 3936
          3940 3944 3948 3952 3956 3960
          3964 3968 3972 3976 3980 3984
          3988 3992 3996 4000 4004 4008
          4012 4016 4020 4024 4028 4032
          4036 4040 4044 4048 4052 4056
          4060 4064 4068 4072 4076 4080
          4084 4088 4092 4096 4100 4104
          4108 4112 4116 4120 4124 4128
          4132 4136 4140 4144 4148 4152
          4156 4160 4164 4168 4172 4176
          4180 4184 4188 4192 4196 4200
          4204 4208 4212 4216 4220 4224
          4228 4232 4236 4240 4244 4248
          4252 4256 4260 4264 4268 4272
          4276 4280 4284 4288 4292 4296
          4300 4304 4308 4312 4316 4320
          4324 4328 4332 4336 4340 4344
          4348 4352 4356 4360 4364 4368
          4372 4376 4380 4384 4388 4392
          4396 4400 4404 4408 4412 4416
          4420 4424 4428 4432 4436 4440
          4444 4448 4452 4456 4460 4464
          4468 4472 4476 4480 4484 4488
          4492 4496 4500 4504 4508 4512
          4516 4520 4524 4528 4532 4536
          4540 4544 4548 4552 4556 4560
          4564 4568 4572 4576 4580 4584
          4588 4592 4596 4600 4604 4608
          4612 4616 4620 4624 4628 4632
          4636 4640 4644 4648 4652 4656
          4660 4664 4668 4672 4676 4680
          4684 4688 4692 4696 4700 4704
          4708 4712 4716 4720 4724 4728
          4732 4736 4740 4744 4748 4752
          4756 4760 4764 4768 4772 4776
          4780 4784 4788 4792 4796 4800
          4804 4808 4812 4816 4820 4824
          4828 4832 4836 4840 4844 4848
          4852 4856 4860 4864 4868 4872
          4876 4880 4884 4888 4892 4896
          4900 4904 4908 4912 4916 4920
          4924 4928 4932 4936 4940 4944
          4948 4952 4956 4960 4964 4968
          4972 4976 4980 4984 4988 4992
          4996 5000 5004 5008 5012 5016
          5020 5024 5028 5032 5036 5040
          5044 5048 5052 5056 5060 5064
          5068 5072 5076 5080 5084 5088
          5092 5096 5100 5104 5108 5112
          5116 5120 5124 5128 5132 5136
          5140 5144 5148 5152 5156 5160
          5164 5168 5172 5176 5180 5184
          5188 5192 5196 5200 5204 5208
          5212 5216 5220 5224 5228 5232
          5236 5240 5244 5248 5252 5256
          5260 5264 5268 5272 5276 5280
          5284 5288 5292 5296 5300 5304
          5308 5312 5316 5320 5324 5328
          5332 5336 5340 5344 5348 5352
          5356 5360 5364 5368 5372 5376
          5380 5384 5388 5392 5396 5400
          5404 5408 5412 5416 5420 5424
          5428 5432 5436 5440 5444 5448
          5452 5456 5460 5464 5468 5472
          5476 5480 5484 5488 5492 5496
          5500 5504 5508 5512 5516 5520
          5524 5528 5532 5536 5540 5544
          5548 5552 5556 5560 5564 5568
          5572 5576 5580 5584 5588 5592
          5596 5600 5604 5608 5612 5616
          5620 5624 5628 5632 5636 5640
          5644 5648 5652 5656 5660 5664
          5668 5672 5676 5680 5684 5688
          5692 5696 5700 5704 5708 5712
          5716 5720 5724 5728 5732 5736
          5740 5744 5748 5752 5756 5760
          5764 5768 5772 5776 5780 5784
          5788 5792 5796 5800 5804 5808
          5812 5816 5820 5824 5828 5832
          5836 5840 5844 5848 5852 5856
          5860 5864 5868 5872 5876 5880
          5884 5888 5892 5896 5900 5904
          5908 5912 5916 5920 5924 5928
          5932 5936 5940 5944 5948 5952
          5956 5960 5964 5968 5972 5976
          5980 5984 5988 5992 5996 6000
          6004 6008 6012 6016 6020 6024
          6028 6032 6036 6040 6044 6048
          6052 6056 6060 6064 6068 6072
          6076 6080 6084 6088 6092 6096
          6100 6104 6108 6112 6116 6120
          6124 6128 6132 6136 6140 6144
          6148 6152 6156 6160 6164 6168
          6172 6176 6180 6184 6188 6192
          6196 6200 6204 6208 6212 6216
          6220 6224 6228 6232 6236 6240
          6244 6248 6252 6256 6260 6264
          6268 6272 6276 6280 6284 6288
          6292 6296 6300 6304 6308 6312
          6316 6320 6324 6328 6332 6336
          6340 6344 6348 6352 6356 6360
          6364 6368 6372 6376 6380 6384
          6388 6392 6396 6400 6404 6408
          6412 6416 6420 6424 6428 6432
          6436 6440 6444 6448 6452 6456
          6460 6464 6468 6472 6476 6480
          6484 6488 6492 6496 6500 6504
          6508 6512 6516 6520 6524 6528
          6532 6536 6540 6544 6548 6552
          6556 6560 6564 6568 6572 6576
          6580 6584 6588 6592 6596 6600
          6604 6608 6612 6616 6620 6624
          6628 6632 6636 6640 6644 6648
          6652 6656 6660 6664 6668 6672
          6676 6680 6684 6688 6692 6696
          6700 6704 6708 6712 6716 6720
          6724 6728 6732 6736 6740 6744
          6748 6752 6756 6760 6764 6768
          6772 6776 6780 6784 6788 6792
          6796 6800 6804 6808 6812 6816
          6820 6824 6828 6832 6836 6840
          6844 6848 6852 6856 6860 6864
          6868 6872 6876 6880 6884 6888
          6892 6896 6900 6904 6908 6912
          6916 6920 6924 6928 6932 6936
          6940 6944 6948 6952 6956 6960
          6964 6968 6972 6976 6980 6984
          6988 6992 6996 7000 7004 7008
          7012 7016 7020 7024 7028 7032
          7036 7040 7044 7048 7052 7056
          7060 7064 7068 7072 7076 7080
          7084 7088 7092 7096 7100 7104
          7108 7112 7116 7120 7124 7128
          7132 7136 7140 7144 7148 7152
          7156 7160 7164 7168 7172 7176
          7180 7184 7188 7192 7196 7200
          7204 7208 7212 7216 7220 7224
          7228 7232 7236 7240 7244 7248
          7252 7256 7260 7264 7268 7272
          7276 7280 7284 7288 7292 7296
          7300 7304 7308 7312 7316 7320
          7324 7328 7332 7336 7340 7344
          7348 7352 7356 7360 7364 7368
          7372 7376 7380 7384 7388 7392
          7396 7400 7404 7408 7412 7416
          7420 7424 7428 7432 7436 7440
          7444 7448 7452 7456 7460 7464
          7468 7472 7476 7480 7484 7488
          7492 7496 7500 7504 7508 7512
          7516 7520 7524 7528 7532 7536
          7540 7544 7548 7552 7556 7560
          7564 7568 7572 7576 7580 7584
          7588 7592 7596 7600 7604 7608
          7612 7616 7620 7624 7628 7632
          7636 7640 7644 7648 7652 7656
          7660 7664 7668 7672 7676 7680
          7684 7688 7692 7696 7700 7704
          7708 7712 7716 7720 7724 7728
          7732 7736 7740 7744 7748 7752
          7756 7760 7764 7768 7772 7776
          7780 7784 7788 7792 7796 7800
          7804 7808 7812 7816 7820 7824
          7828 7832 7836 7840 7844 7848
          7852 7856 7860 7864 7868 7872
          7876 7880 7884 7888 7892 7896
          7900 7904 7908 7912 7916 7920
          7924 7928 7932 7936 7940 7944
          7948 7952 7956 7960 7964 7968
          7972 7976 7980 7984 7988 7992
          7996 8000 8004 8008 8012 8016
          8020 8024 8028 8032 8036 8040
          8044 8048 8052 8056 8060 8064
          8068 8072 8076 8080 8084 8088
          8092 8096 8100 8104 8108 8112
          8116 8120 8124 8128 8132 8136
          8140 8144 8148 8152 8156 8160
          8164 8168 8172 8176 8180 8184
          8188 8192 8196 8200 8204 8208
          8212 8216 8220 8224 8228 8232
          8236 8240 8244 8248 8252 8256
          8260 8264 8268 8272 8276 8280
          8284 8288 8292 8296 8300 8304
          8308 8312 8316 8320 8324 8328
          8332 8336 8340 8344 8348 8352
          8356 8360 8364 8368 8372 8376
          8380 8384 8388 8392 8396 8400
          8404 8408 8412 8416 8420 8424
          8428 8432 8436 8440 8444 8448
          8452 8456 8460 8464 8468 8472
          8476 8480 8484 8488 8492 8496
          8500 8504 8508 8512 8516 8520
          8524 8528 8532 8536 8540 8544
          8548 8552 8556 8560 8564 8568
          8572 8576 8580 8584 8588 8592
          8596 8600 8604 8608 8612 8616
          8620 8624 8628 8632 8636 8640
          8644 8648 8652 8656 8660 8664
          8668 8672 8676 8680 8684 8688
          8692 8696 8700 8704 8708 8712
          8716 8720 8724 8728 8732 8736
          8740 8744 8748 8752 8756 8760
          8764 8768 8772 8776 8780 8784
          8788 8792 8796 8800 8804 8808
          8812 8816 8820 8824 8828 8832
          8836 8840 8844 8848 8852 8856
          8860 8864 8868 8872 8876 8880
          8884 8888 8892 8896 8900 8904
          8908 8912 8916 8920 8924 8928
          8932 8936 8940 8944 8948 8952
          8956 8960 8964 8968 8972 8976
          8980 8984 8988 8992 8996 9000
          9004 9008 9012 9016 9020 9024
          9028 9032 9036 9040 9044 9048
          9052 9056 9060 9064 9068 9072
          9076 9080 9084 9088 9092 9096
          9100 9104 9108 9112 9116 9120
          9124 9128 9132 9136 9140 9144
          9148 9152 9156 9160 9164 9168
          9172 9176 9180 9184 9188 9192
          9196 9200 9204 9208 9212 9216
          9220 9224 9228 9232 9236 9240
          9244 9248 9252 9256 9260 9264
          9268 9272 9276 9280 9284 9288
          9292 9296 9300 9304 9308 9312
          9316 9320 9324 9328 9332 9336
          9340 9344 9348 9352 9356 9360
          9364 9368 9372 9376 9380 9384
          9388 9392 9396 9400 9404 9408
          9412 9416 9420 9424 9428 9432
          9436 9440 9444 9448 9452 9456
          9460 9464 9468 9472 9476 9480
          9484 9488 9492 9496 9500 9504
          9508 9512 9516 9520 9524 9528
          9532 9536 9540 9544 9548 9552
          9556 9560 9564 9568 9572 9576
          9580 9584 9588 9592 9596 9600
          9604 9608 9612 9616 9620 9624
          9628 9632 9636 9640 9644 9648
          9652 9656 9660 9664 9668 9672
          9676 9680 9684 9688 9692 9696
          9700 9704 9708 9712 9716 9720
          9724 9728 9732 9736 9740 9744
          9748 9752 9756 9760 9764 9768
          9772 9776 9780 9784 9788 9792
          9796 9800 9804 9808 9812 9816
          9820 9824 9828 9832 9836 9840
          9844 9848 9852 9856 9860 9864
          9868 9872 9876 9880 9884 9888
          9892 9896 9900 9904 9908 9912
          9916 9920 9924 9928 9932 9936
          9940 9944 9948 9952 9956 9960
          9964 9968 9972 9976 9980 9984
          9988 9992 9996 10000 10004 10008
          10012 10016 10020 10024 10028 10032
          10036 10040 10044 10048 10052 10056
          10060 10064 10068 10072 10076 10080
          10084 10088 10092 10096 10100 10104
          10108 10112 10116 10120 10124 10128
          10132 10136 10140 10144 10148 10152
          10156 10160 10164 10168 10172 10176
          10180 10184 10188 10192 10196 10200
          10204 10208 10212 10216 10220 10224
          10228 10232 10236 10240 10244 10248
          10252 10256 10260 10264 10268 10272
          10276 10280 10284 10288 10292 10296
          10300 10304 10308 10312 10316 10320
          10324 10328 10332 10336 10340 10344
          10348 10352 10356 10360 10364 10368
          10372 10376 10380 10384 10388 10392
          10396 10400 10404 10408 10412 10416
          10420 10424 10428 10432 10436 10440
          10444 10448 10452 10456 10460 10464
          10468 10472 10476 10480 10484 10488
          10492 10496 10500 10504 10508 10512
          10516 10520 10524 10528 10532 10536
          10540 10544 10548 10552 10556 10560
          10564 10568 10572 10576 10580 10584
          10588 10592 10596 10600 10604 10608
          10612 10616 10620 10624 10628 10632
          10636 10640 10644 10648 10652 10656
          10660 10664 10668 10672 10676 10680
          10684 10688 10692 10696 10700 10704
          10708 10712 10716 10720 10724 10728
          10732 10736 10740 10744 10748 10752
          10756 10760 10764 10768 10772 10776
          10780 10784 10788 10792 10796 10800
          10804 10808 10812 10816 10820 10824
          10828 10832 10836 10840 10844 10848
          10852 10856 10860 10864 10868 10872
          10876 10880 10884 10888 10892 10896
          10900 10904 10908 10912 10916 10920
          10924 10928 10932 10936 10940 10944
          10948 10952 10956 10960 10964 10968
          10972 10976 10980 10984 10988 10992
          10996 11000 11004 11008 11012 11016
          11020 11024 11028 11032 11036 11040
          11044 11048 11052 11056 11060 11064
          11068 11072 11076 11080 11084 11088
          11092 11096 11100 11104 11108 11112
          11116 11120 11124 11128 11132 11136
          11140 11144 11148 11152 11156 11160
          11164 11168 11172 11176 11180 11184
          11188 11192 11196 11200 11204 11208
          11212 11216 11220 11224 11228 11232
          11236 11240 11244 11248 11252 11256
          11260 11264 11268 11272 11276 11280
          11284 11288 11292 11296 11300 11304
          11308 11312 11316 11320 11324 11328
          11332 11336 11340 11344 11348 11352
          11356 11360 11364 11368 11372 11376
          11380 11384 11388 11392 11396 11400
          11404 11408 11412 11416 11420 11424
          11428 11432 11436 11440 11444 11448
          11452 11456 11460 11464 11468 11472
          11476 11480 11484 11488 11492 11496
          11500 11504 11508 11512 11516 11520
          11524 11528 11532 11536 11540 11544
          11548 11552 11556 11560 11564 11568
          11572 11576 11580 11584 11588 11592
          11596 11600 11604 11608 11612 11616
          11620 11624 11628 11632 11636 11640
          11644 11648 11652 11656 11660 11664
          11668 11672 11676 11680 11684 11688
          11692 11696 11700 11704 11708 11712
          11716 11720 11724 11728 11732 11736
          11740 11744 11748 11752 11756 11760
          11764 11768 11772 11776 11780 11784
          11788 11792 11796 11800 11804 11808
          11812 11816 11820 11824 11828 11832
          11836 11840 11844 11848 11852 11856
          11860 11864 11868 11872 11876 11880
          11884 11888 11892 11896 11900 11904
          11908 11912 11916 11920 11924 11928
          11932 11936 11940 11944 11948 11952
          11956 11960 11964 11968 11972 11976
          11980 11984 11988 11992 11996 12000
          12004 12008 12012 12016 12020 12024
          12028 12032 12036 12040 12044 12048
          12052 12056 12060 12064 12068 12072
          12076 12080 12084 12088 12092 12096
          12100 12104 12108 12112 12116 12120
          12124 12128 12132 12136 12140 12144
          12148 12152 12156 12160 12164 12168
          12172 12176 12180 12184 12188 12192
          12196 12200 12204 12208 12212 12216
          12220 12224 12228 12232 12236 12240
          12244 12248 12252 12256 12260 12264
          12268 12272 12276 12280 12284 12288
          12292 12296 12300 12304 12308 12312
          12316 12320 12324 12328 12332 12336
          12340 12344 12348 12352 12356 12360
          12364 12368 12372 12376 12380 12384
          12388 12392 12396 12400 12404 12408
          12412 12416 12420 12424 12428 12432
          12436 12440 12444 12448 12452 12456
          12460 12464 12468 12472 12476 12480
          12484 12488 12492 12496 12500 12504
          12508 12512 12516 12520 12524 12528
          12532 12536 12540 12544 12548 12552
          12556 12560 12564 12568 12572 12576
          12580 12584 12588 12592 12596 12600
          12604 12608 12612 12616 12620 12624
          12628 12632 12636 12640 12644 12648
          12652 12656 12660 12664 12668 12672
          12676 12680 12684 12688 12692 12696
          12700 12704 12708 12712 12716 12720
          12724 12728 12732 12736 12740 12744
          12748 12752 12756 12760 12764 12768
          12772 12776 12780 12784 12788 12792
          12796 12800 12804 12808 12812 12816
          12820 12824 12828 12832 12836 12840
          12844 12848 12852 12856 12860 12864
          12868 12872 12876 12880 12884 12888
          12892 12896 12900 12904 12908 12912
          12916 12920 12924 12928 12932 12936
          12940 12944 12948 12952 12956 12960
          12964 12968 12972 12976 12980 12984
          12988 12992 12996 13000 13004 13008
          13012 13016 13020 13024 13028 13032
          13036 13040 13044 13048 13052 13056
          13060 13064 13068 13072 13076 13080
          13084 13088 13092 13096 13100 13104
          13108 13112 13116 13120 13124 13128
          13132 13136 13140 13144 13148 13152
          13156 13160 13164 13168 13172 13176
          13180 13184 13188 13192 13196 13200
          13204 13208 13212 13216 13220 13224
          13228 13232 13236 13240 13244 13248
          13252 13256 13260 13264 13268 13272
          13276 13280 13284 13288 13292 13296
          13300 13304 13308 13312 13316 13320
          13324 13328 13332 13336 13340 13344
          13348 13352 13356 13360 13364 13368
          13372 13376 13380 13384 13388 13392
          13396 13400 13404 13408 13412 13416
          13420 13424 13428 13432 13436 13440
          13444 13448 13452 13456 13460 13464
          13468 13472 13476 13480 13484 13488
          13492 13496 13500 13504 13508 13512
          13516 13520 13524 13528 13532 13536
          13540 13544 13548 13552 13556 13560
          13564 13568 13572 13576 13580 13584
          13588 13592 13596 13600 13604 13608
          13612 13616 13620 13624 13628 13632
          13636 13640 13644 13648 13652 13656
          13660 13664 13668 13672 13676 13680
          13684 13688 13692 13696 13700 13704
          13708 13712 13716 13720 13724 13728
          13732 13736 13740 13744 13748 13752
          13756 13760 13764 13768 13772 13776
          13780 13784 13788 13792 13796 13800
          13804 13808 13812 13816 13820 13824
          13828 13832 13836 13840 13844 13848
          13852 13856 13860 13864 13868 13872
          13876 13880 13884 13888 13892 13896
          13900 13904 13908 13912 13916 13920
          13924 13928 13932 13936 13940 13944
          13948 13952 13956 13960 13964 13968
          13972 13976 13980 13984 13988 13992
          13996 14000 14004 14008 14012 14016
          14020 14024 14028 14032 14036 14040
          14044 14048 14052 14056 14060 14064
          14068 14072 14076 14080 14084 14088
          14092 14096 14100 14104 14108 14112
          14116 14120 14124 14128 14132 14136
          14140 14144 14148 14152 14156 14160
          14164 14168 14172 14176 14180 14184
          14188 14192 14196 14200 14204 14208
          14212 14216 14220 14224 14228 14232
          14236 14240 14244 14248 14252 14256
          14260 14264 14268 14272 14276 14280
          14284 14288 14292 14296 14300 14304
          14308 14312 14316 14320 14324 14328
          14332 14336 14340 14344 14348 14352
          14356 14360 14364 14368 14372 14376
          14380 14384 14388 14392 14396 14400
          14404 14408 14412 14416 14420 14424
          14428 14432 14436 14440 14444 14448
          14452 14456 14460 14464 14468 14472
          14476 14480 14484 14488 14492 14496
          14500 14504 14508 14512 14516 14520
          14524 14528 14532 14536 14540 14544
          14548 14552 14556 14560 14564 14568
          14572 14576 14580 14584 14588 14592
          14596 14600 14604 14608 14612 14616
          14620 14624 14628 14632 14636 14640
          14644 14648 14652 14656 14660 14664
          14668 14672 14676 14680 14684 14688
          14692 14696 14700 14704 14708 14712
          14716 14720 14724 14728 14732 14736
          14740 14744 14748 14752 14756 14760
          14764 14768 14772 14776 14780 14784
          14788 14792 14796 14800 14804 14808
          14812 14816 14820 14824 14828 14832
          14836 14840 14844 14848 14852 14856
          14860 14864 14868 14872 14876 14880
          14884 14888 14892 14896 14900 14904
          14908 14912 14916 14920 14924 14928
          14932 14936 14940 14944 14948 14952
          14956 14960 14964 14968 14972 14976
          14980 14984 14988 14992 14996 15000
          15004 15008 15012 15016 15020 15024
          15028 15032 15036 15040 15044 15048
          15052 15056 15060 15064 15068 15072
          15076 15080 15084 15088 15092 15096
          15100 15104 15108 15112 15116 15120
          15124 15128 15132 15136 15140 15144
          15148 15152 15156 15160 15164 15168
          15172 15176 15180 15184 15188 15192
          15196 15200 15204 15208 15212 15216
          15220 15224 15228 15232 15236 15240
          15244 15248 15252 15256 15260 15264
          15268 15272 15276 15280 15284 15288
          15292 15296 15300 15304 15308 15312
          15316 15320 15324 15328 15332 15336
          15340 15344 15348 15352 15356 15360
          15364 15368 15372 15376 15380 15384
          15388 15392 15396 15400 15404 15408
          15412 15416 15420 15424 15428 15432
          15436 15440 15444 15448 15452 15456
          15460 15464 15468 15472 15476 15480
          15484 15488 15492 15496 15500 15504
          15508 15512 15516 15520 15524 15528
          15532 15536 15540 15544 15548 15552
          15556 15560 15564 15568 15572 15576
          15580 15584 15588 15592 15596 15600
          15604 15608 15612 15616 15620 15624
          15628 15632 15636 15640 15644 15648
          15652 15656 15660 15664 15668 15672
          15676 15680 15684 15688 15692 15696
          15700 15704 15708 15712 15716 15720
          15724 15728 15732 15736 15740 15744
          15748 15752 15756 15760 15764 15768
          15772 15776 15780 15784 15788 15792
          15796 15800 15804 15808 15812 15816
          15820 15824 15828 15832 15836 15840
          15844 15848 15852 15856 15860 15864
          15868 15872 15876 15880 15884 15888
          15892 15896 15900 15904 15908 15912
          15916 15920 15924 15928 15932 15936
          15940 15944 15948 15952 15956 15960
          15964 15968 15972 15976 15980 15984
          15988 15992 15996 16000 16004 16008
          16012 16016 16020 16024 16028 16032
          16036 16040 16044 16048 16052 16056
          16060 16064 16068 16072 16076 16080
          16084 16088 16092 16096 16100 16104
          16108 16112 16116 16120 16124 16128
          16132 16136 16140 16144 16148 16152
          16156 16160 16164 16168 16172 16176
          16180 16184 16188 16192 16196 16200
          16204 16208 16212 16216 16220 16224
          16228 16232 16236 16240 16244 16248
          16252 16256 16260 16264 16268 16272
          16276 16280 16284 16288 16292 16296
          16300 16304 16308 16312 16316 16320
          16324 16328 16332 16336 16340 16344
          16348 16352 16356 16360 16364 16368
          16372 16376 16380 16384 16388 16392
          16396 16400 16404 16408 16412 16416
          16420 16424 16428 16432 16436 16440
          16444 16448 16452 16456 16460 16464
          16468 16472 16476 16480 16484 16488
          16492 16496 16500 16504 16508 16512
          16516 16520 16524 16528 16532 16536
          16540 16544 16548 16552 16556 16560
          16564 16568 16572 16576 16580 16584
          16588 16592 16596 16600 16604 16608
          16612 16616 16620 16624 16628 16632
          16636 16640 16644 16648 16652 16656
          16660 16664 16668 16672 16676 16680
          16684 16688 16692 16696 16700 16704
          16708 16712 16716 16720 16724 16728
          16732 16736 16740 16744 16748 16752
          16756 16760 16764 16768 16772 16776
          16780 16784 16788 16792 16796 16800
          16804 16808 16812 16816 16820 16824
          16828 16832 16836 16840 16844 16848
          16852 16856 16860 16864 16868 16872
          16876 16880 16884 16888 16892 16896
          16900 16904 16908 16912 16916 16920
          16924 16928 16932 16936 16940 16944
          16948 16952 16956 16960 16964 16968
          16972 16976 16980 16984 16988 16992
          16996 17000 17004 17008 17012 17016
          17020 17024 17028 17032 17036 17040
          17044 17048 17052 17056 17060 17064
          17068 17072 17076 17080 17084 17088
          17092 17096 17100 17104 17108 17112
          17116 17120 17124 17128 17132 17136
          17140 17144 17148 17152 17156 17160
          17164 17168 17172 17176 17180 17184
          17188 17192 17196 17200 17204 17208
          17212 17216 17220 17224 17228 17232
          17236 17240 17244 17248 17252 17256
          17260 17264 17268 17272 17276 17280
          17284 17288 17292 17296 17300 17304
          17308 17312 17316 17320 17324 17328
          17332 17336 17340 17344 17348 17352
          17356 17360 17364 17368 17372 17376
          17380 17384 17388 17392 17396 17400
          17404 17408 17412 17416 17420 17424
          17428 17432 17436 17440 17444 17448
          17452 17456 17460 17464 17468 17472
          17476 17480 17484 17488 17492 17496
          17500 17504 17508 17512 17516 17520
          17524 17528 17532 17536 17540 17544
          17548 17552 17556 17560 17564 17568
          17572 17576 17580 17584 17588 17592
          17596 17600 17604 17608 17612 17616
          17620 17624 17628 17632 17636 17640
          17644 17648 17652 17656 17660 17664
          17668 17672 17676 17680 17684 17688
          17692 17696 17700 17704 17708 17712
          17716 17720 17724 17728 17732 17736
          17740 17744 17748 17752 17756 17760
          17764 17768 17772 17776 17780 17784
          17788 17792 17796 17800 17804 17808
          17812 17816 17820 17824 17828 17832
          17836 17840 17844 17848 17852 17856
          17860 17864 17868 17872 17876 17880
          17884 17888 17892 17896 17900 17904
          17908 17912 17916 17920 17924 17928
          17932 17936 17940 17944 17948 17952
          17956 17960 17964 17968 17972 17976
          17980 17984 17988 17992 17996 18000
          18004 18008 18012 18016 18020 18024
          18028 18032 18036 18040 18044 18048
          18052 18056 18060 18064 18068 18072
          18076 18080 18084 18088 18092 18096
          18100 18104 18108 18112 18116 18120
          18124 18128 18132 18136 18140 18144
          18148 18152 18156 18160 18164 18168
          18172 18176 18180 18184 18188 18192
          18196 18200 18204 18208 18212 18216
          18220 18224 18228 18232 18236 18240
          18244 18248 18252 18256 18260 18264
          18268 18272 18276 18280 18284 18288
          18292 18296 18300 18304 18308 18312
          18316 18320 18324 18328 18332 18336
          18340 18344 18348 18352 18356 18360
          18364 18368 18372 18376 18380 18384
          18388 18392 18396 18400 18404 18408
          18412 18416 18420 18424 18428 18432
          18436 18440 18444 18448 18452 18456
          18460 18464 18468 18472 18476 18480
          18484 18488 18492 18496 18500 18504
          18508 18512 18516 18520 18524 18528
          18532 18536 18540 18544 18548 18552
          18556 18560 18564 18568 18572 18576
          18580 18584 18588 18592 18596 18600
          18604 18608 18612 18616 18620 18624
          18628 18632 18636 18640 18644 18648
          18652 18656 18660 18664 18668 18672
          18676 18680 18684 18688 18692 18696
          18700 18704 18708 18712 18716 18720
          18724 18728 18732 18736 18740 18744
          18748 18752 18756 18760 18764 18768
          18772 18776 18780 18784 18788 18792
          18796 18800 18804 18808 18812 18816
          18820 18824 18828 18832 18836 18840
          18844 18848 18852 18856 18860 18864
          18868 18872 18876 18880 18884 18888
          18892 18896 18900 18904 18908 18912
          18916 18920 18924 18928 18932 18936
          18940 18944 18948 18952 18956 18960
          18964 18968 18972 18976 18980 18984
          18988 18992 18996 19000 19004 19008
          19012 19016 19020 19024 19028 19032
          19036 19040 19044 19048 19052 19056
          19060 19064 19068 19072 19076 19080
          19084 19088 19092 19096 19100 19104
          19108 19112 19116 19120 19124 19128
          19132 19136 19140 19144 19148 19152
          19156 19160 19164 19168 19172 19176
          19180 19184 19188 19192 19196 19200
          19204 19208 19212 19216 19220 19224
          19228 19232 19236 19240 19244 19248
          19252 19256 19260 19264 19268 19272
          19276 19280 19284 19288 19292 19296
          19300 19304 19308 19312 19316 19320
          19324 19328 19332 19336 19340 19344
          19348 19352 19356 19360 19364 19368
          19372 19376 19380 19384 19388 19392
          19396 19400 19404 19408 19412 19416
          19420 19424 19428 19432 19436 19440
          19444 19448 19452 19456 19460 19464
          19468 19472 19476 19480 19484 19488
          19492 19496 19500 19504 19508 19512
          19516 19520 19524 19528 19532 19536
          19540 19544 19548 19552 19556 19560
          19564 19568 19572 19576 19580 19584
          19588 19592 19596 19600 19604 19608
          19612 19616 19620 19624 19628 19632
          19636 19640 19644 19648 19652 19656
          19660 19664 19668 19672 19676 19680
          19684 19688 19692 19696 19700 19704
          19708 19712 19716 19720 19724 19728
          19732 19736 19740 19744 19748 19752
          19756 19760 19764 19768 19772 19776
          19780 19784 19788 19792 19796 19800
          19804 19808 19812 19816 19820 19824
          19828 19832 19836 19840 19844 19848
          19852 19856 19860 19864 19868 19872
          19876 19880 19884 19888 19892 19896
          19900 19904 19908 19912 19916 19920
          19924 19928 19932 19936 19940 19944
          19948 19952 19956 19960 19964 19968
          19972 19976 19980 19984 19988 19992
          19996 20000 20004 20008 20012 20016
          20020 20024 20028 20032 20036 20040
          20044 20048 20052 20056 20060 20064
          20068 20072 20076 20080 20084 20088
          20092 20096 20100 20104 20108 20112
          20116 20120 20124 20128 20132 20136
          20140 20144 20148 20152 20156 20160
          20164 20168 20172 20176 20180 20184
          20188 20192 20196 20200 20204 20208
          20212 20216 20220 20224 20228 20232
          20236 20240 20244 20248 20252 20256
          20260 20264 20268 20272 20276 20280
          20284 20288 20292 20296 20300 20304
          20308 20312 20316 20320 20324 20328
          20332 20336 20340 20344 20348 20352
          20356 20360 20364 20368 20372 20376
          20380 20384 20388 20392 20396 20400
          20404 20408 20412 20416 20420 20424
          20428 20432 20436 20440 20444 20448
          20452 20456 20460 20464 20468 20472
          20476 20480 20484 20488 20492 20496
          20500 20504 20508 20512 20516 20520
          20524 20528 20532 20536 20540 20544
          20548 20552 20556 20560 20564 20568
          20572 20576 20580 20584 20588 20592
          20596 20600 20604 20608 20612 20616
          20620 20624 20628 20632 20636 20640
          20644 20648 20652 20656 20660 20664
          20668 20672 20676 20680 20684 20688
          20692 20696 20700 20704 20708 20712
          20716 20720 20724 20728 20732 20736
          20740 20744 20748 20752 20756 20760
          20764 20768 20772 20776 20780 20784
          20788 20792 20796 20800 20804 20808
          20812 20816 20820 20824 20828 20832
          20836 20840 20844 20848 20852 20856
          20860 20864 20868 20872 20876 20880
          20884 20888 20892 20896 20900 20904
          20908 20912 20916 20920 20924 20928
          20932 20936 20940 20944 20948 20952
          20956 20960 20964 20968 20972 20976
          20980 20984 20988 20992 20996 21000
          21004 21008 21012 21016 21020 21024
          21028 21032 21036 21040 21044 21048
          21052 21056 21060 21064 21068 21072
          21076 21080 21084 21088 21092 21096
          21100 21104 21108 21112 21116 21120
          21124 21128 21132 21136 21140 21144
          21148 21152 21156 21160 21164 21168
          21172 21176 21180 21184 21188 21192
          21196 21200 21204 21208 21212 21216
          21220 21224 21228 21232 21236 21240
          21244 21248 21252 21256 21260 21264
          21268 21272 21276 21280 21284 21288
          21292 21296 21300 21304 21308 21312
          21316 21320 21324 21328 21332 21336
          21340 21344 21348 21352 21356 21360
          21364 21368 21372 21376 21380 21384
          21388 21392 21396 21400 21404 21408
          21412 21416 21420 21424 21428 21432
          21436 21440 21444 21448 21452 21456
          21460 21464 21468 21472 21476 21480
          21484 21488 21492 21496 21500 21504
          21508 21512 21516 21520 21524 21528
          21532 21536 21540 21544 21548 21552
          21556 21560 21564 21568 21572 21576
          21580 21584 21588 21592 21596 21600
          21604 21608 21612 21616 21620 21624
          21628 21632 21636 21640 21644 21648
          21652 21656 21660 21664 21668 21672
          21676 21680 21684 21688 21692 21696
          21700 21704 21708 21712 21716 21720
          21724 21728 21732 21736 21740 21744
          21748 21752 21756 21760 21764 21768
          21772 21776 21780 21784 21788 21792
          21796 21800 21804 21808 21812 21816
          21820 21824 21828 21832 21836 21840
          21844 21848 21852 21856 21860 21864
          21868
        </DataArray>
        <DataArray type="UInt8" Name="types" format="ascii" RangeMin="10" RangeMax="10">
          10 10 10 10 10 10
          10 10 10 10 10 10
          10 10 10 10 10 10
          10 10 10 10 10 10
          10 10 10 10 10 10
          10 10 10 10 10 10
          10 10 10 10 10 10
          10 10 10 10 10 10
          10 10 10 10 10 10
          10 10 10 10 10 10
          10 10 10 10 10 10
          10 10 10 10 10 10
          10 10 10 10 10 10
          10 10 10 10 10 10
          10 10 10 10 10 10
          10 10 10 10 10 10
          10 10 10 10 10 10
          10 10 10 10 10 10
          10 10 10 10 10 10
          10 10 10 10 10 10
          10 10 10 10 10 10
          10 10 10 10 10 10
          10 10 10 10 10 10
          10 10 10 10 10 10
          10 10 10 10 10 10
          10 10 10 10 10 10
          10 10 10 10 10 10
          10 10 10 10 10 10
          10 10 10 10 10 10
          10 10 10 10 10 10
          10 10 10 10 10 10
          10 10 10 10 10 10
          10 10 10 10 10 10
          10 10 10 10 10 10
          10 10 10 10 10 10
          10 10 10 10 10 10
          10 10 10 10 10 10
          10 10 10 10 10 10
          10 10 10 10 10 10
          10 10 10 10 10 10
          10 10 10 10 10 10
          10 10 10 10 10 10
          10 10 10 10 10 10
          10 10 10 10 10 10
          10 10 10 10 10 10
          10 10 10 10 10 10
          10 10 10 10 10 10
          10 10 10 10 10 10
          10 10 10 10 10 10
          10 10 10 10 10 10
          10 10 10 10 10 10
          10 10 10 10 10 10
          10 10 10 10 10 10
          10 10 10 10 10 10
          10 10 10 10 10 10
          10 10 10 10 10 10
          10 10 10 10 10 10
          10 10 10 10 10 10
          10 10 10 10 10 10
          10 10 10 10 10 10
          10 10 10 10 10 10
          10 10 10 10 10 10
          10 10 10 10 10 10
          10 10 10 10 10 10
          10 10 10 10 10 10
          10 10 10 10 10 10
          10 10 10 10 10 10
          10 10 10 10 10 10
          10 10 10 10 10 10
          10 10 10 10 10 10
          10 10 10 10 10 10
          10 10 10 10 10 10
          10 10 10 10 10 10
          10 10 10 10 10 10
          10 10 10 10 10 10
          10 10 10 10 10 10
          10 10 10 10 10 10
          10 10 10 10 10 10
          10 10 10 10 10 10
          10 10 10 10 10 10
          10 10 10 10 10 10
          10 10 10 10 10 10
          10 10 10 10 10 10
          10 10 10 10 10 10
          10 10 10 10 10 10
          10 10 10 10 10 10
          10 10 10 10 10 10
          10 10 10 10 10 10
          10 10 10 10 10 10
          10 10 10 10 10 10
          10 10 10 10 10 10
          10 10 10 10 10 10
          10 10 10 10 10 10
          10 10 10 10 10 10
          10 10 10 10 10 10
          10 10 10 10 10 10
          10 10 10 10 10 10
          10 10 10 10 10 10
          10 10 10 10 10 10
          10 10 10 10 10 10
          10 10 10 10 10 10
          10 10 10 10 10 10
          10 10 10 10 10 10
          10 10 10 10 10 10
          10 10 10 10 10 10
          10 10 10 10 10 10
          10 10 10 10 10 10
          10 10 10 10 10 10
          10 10 10 10 10 10
          10 10 10 10 10 10
          10 10 10 10 10 10
          10 10 10 10 10 10
          10 10 10 10 10 10
          10 10 10 10 10 10
          10 10 10 10 10 10
          10 10 10 10 10 10
          10 10 10 10 10 10
          10 10 10 10 10 10
          10 10 10 10 10 10
          10 10 10 10 10 10
          10 10 10 10 10 10
          10 10 10 10 10 10
          10 10 10 10 10 10
          10 10 10 10 10 10
          10 10 10 10 10 10
          10 10 10 10 10 10
          10 10 10 10 10 10
          10 10 10 10 10 10
          10 10 10 10 10 10
          10 10 10 10 10 10
          10 10 10 10 10 10
          10 10 10 10 10 10
          10 10 10 10 10 10
          10 10 10 10 10 10
          10 10 10 10 10 10
          10 10 10 10 10 10
          10 10 10 10 10 10
          10 10 10 10 10 10
          10 10 10 10 10 10
          10 10 10 10 10 10
          10 10 10 10 10 10
          10 10 10 10 10 10
          10 10 10 10 10 10
          10 10 10 10 10 10
          10 10 10 10 10 10
          10 10 10 10 10 10
          10 10 10 10 10 10
          10 10 10 10 10 10
          10 10 10 10 10 10
          10 10 10 10 10 10
          10 10 10 10 10 10
          10 10 10 10 10 10
          10 10 10 10 10 10
          10 10 10 10 10 10
          10 10 10 10 10 10
          10 10 10 10 10 10
          10 10 10 10 10 10
          10 10 10 10 10 10
          10 10 10 10 10 10
          10 10 10 10 10 10
          10 10 10 10 10 10
          10 10 10 10 10 10
          10 10 10 10 10 10
          10 10 10 10 10 10
          10 10 10 10 10 10
          10 10 10 10 10 10
          10 10 10 10 10 10
          10 10 10 10 10 10
          10 10 10 10 10 10
          10 10 10 10 10 10
          10 10 10 10 10 10
          10 10 10 10 10 10
          10 10 10 10 10 10
          10 10 10 10 10 10
          10 10 10 10 10 10
          10 10 10 10 10 10
          10 10 10 10 10 10
          10 10 10 10 10 10
          10 10 10 10 10 10
          10 10 10 10 10 10
          10 10 10 10 10 10
          10 10 10 10 10 10
          10 10 10 10 10 10
          10 10 10 10 10 10
          10 10 10 10 10 10
          10 10 10 10 10 10
          10 10 10 10 10 10
          10 10 10 10 10 10
          10 10 10 10 10 10
          10 10 10 10 10 10
          10 10 10 10 10 10
          10 10 10 10 10 10
          10 10 10 10 10 10
          10 10 10 10 10 10
          10 10 10 10 10 10
          10 10 10 10 10 10
          10 10 10 10 10 10
          10 10 10 10 10 10
          10 10 10 10 10 10
          10 10 10 10 10 10
          10 10 10 10 10 10
          10 10 10 10 10 10
          10 10 10 10 10 10
          10 10 10 10 10 10
          10 10 10 10 10 10
          10 10 10 10 10 10
          10 10 10 10 10 10
          10 10 10 10 10 10
          10 10 10 10 10 10
          10 10 10 10 10 10
          10 10 10 10 10 10
          10 10 10 10 10 10
          10 10 10 10 10 10
          10 10 10 10 10 10
          10 10 10 10 10 10
          10 10 10 10 10 10
          10 10 10 10 10 10
          10 10 10 10 10 10
          10 10 10 10 10 10
          10 10 10 10 10 10
          10 10 10 10 10 10
          10 10 10 10 10 10
          10 10 10 10 10 10
          10 10 10 10 10 10
          10 10 10 10 10 10
          10 10 10 10 10 10
          10 10 10 10 10 10
          10 10 10 10 10 10
          10 10 10 10 10 10
          10 10 10 10 10 10
          10 10 10 10 10 10
          10 10 10 10 10 10
          10 10 10 10 10 10
          10 10 10 10 10 10
          10 10 10 10 10 10
          10 10 10 10 10 10
          10 10 10 10 10 10
          10 10 10 10 10 10
          10 10 10 10 10 10
          10 10 10 10 10 10
          10 10 10 10 10 10
          10 10 10 10 10 10
          10 10 10 10 10 10
          10 10 10 10 10 10
          10 10 10 10 10 10
          10 10 10 10 10 10
          10 10 10 10 10 10
          10 10 10 10 10 10
          10 10 10 10 10 10
          10 10 10 10 10 10
          10 10 10 10 10 10
          10 10 10 10 10 10
          10 10 10 10 10 10
          10 10 10 10 10 10
          10 10 10 10 10 10
          10 10 10 10 10 10
          10 10 10 10 10 10
          10 10 10 10 10 10
          10 10 10 10 10 10
          10 10 10 10 10 10
          10 10 10 10 10 10
          10 10 10 10 10 10
          10 10 10 10 10 10
          10 10 10 10 10 10
          10 10 10 10 10 10
          10 10 10 10 10 10
          10 10 10 10 10 10
          10 10 10 10 10 10
          10 10 10 10 10 10
          10 10 10 10 10 10
          10 10 10 10 10 10
          10 10 10 10 10 10
          10 10 10 10 10 10
          10 10 10 10 10 10
          10 10 10 10 10 10
          10 10 10 10 10 10
          10 10 10 10 10 10
          10 10 10 10 10 10
          10 10 10 10 10 10
          10 10 10 10 10 10
          10 10 10 10 10 10
          10 10 10 10 10 10
          10 10 10 10 10 10
          10 10 10 10 10 10
          10 10 10 10 10 10
          10 10 10 10 10 10
          10 10 10 10 10 10
          10 10 10 10 10 10
          10 10 10 10 10 10
          10 10 10 10 10 10
          10 10 10 10 10 10
          10 10 10 10 10 10
          10 10 10 10 10 10
          10 10 10 10 10 10
          10 10 10 10 10 10
          10 10 10 10 10 10
          10 10 10 10 10 10
          10 10 10 10 10 10
          10 10 10 10 10 10
          10 10 10 10 10 10
          10 10 10 10 10 10
          10 10 10 10 10 10
          10 10 10 10 10 10
          10 10 10 10 10 10
          10 10 10 10 10 10
          10 10 10 10 10 10
          10 10 10 10 10 10
          10 10 10 10 10 10
          10 10 10 10 10 10
          10 10 10 10 10 10
          10 10 10 10 10 10
          10 10 10 10 10 10
          10 10 10 10 10 10
          10 10 10 10 10 10
          10 10 10 10 10 10
          10 10 10 10 10 10
          10 10 10 10 10 10
          10 10 10 10 10 10
          10 10 10 10 10 10
          10 10 10 10 10 10
          10 10 10 10 10 10
          10 10 10 10 10 10
          10 10 10 10 10 10
          10 10 10 10 10 10
          10 10 10 10 10 10
          10 10 10 10 10 10
          10 10 10 10 10 10
          10 10 10 10 10 10
          10 10 10 10 10 10
          10 10 10 10 10 10
          10 10 10 10 10 10
          10 10 10 10 10 10
          10 10 10 10 10 10
          10 10 10 10 10 10
          10 10 10 10 10 10
          10 10 10 10 10 10
          10 10 10 10 10 10
          10 10 10 10 10 10
          10 10 10 10 10 10
          10 10 10 10 10 10
          10 10 10 10 10 10
          10 10 10 10 10 10
          10 10 10 10 10 10
          10 10 10 10 10 10
          10 10 10 10 10 10
          10 10 10 10 10 10
          10 10 10 10 10 10
          10 10 10 10 10 10
          10 10 10 10 10 10
          10 10 10 10 10 10
          10 10 10 10 10 10
          10 10 10 10 10 10
          10 10 10 10 10 10
          10 10 10 10 10 10
          10 10 10 10 10 10
          10 10 10 10 10 10
          10 10 10 10 10 10
          10 10 10 10 10 10
          10 10 10 10 10 10
          10 10 10 10 10 10
          10 10 10 10 10 10
          10 10 10 10 10 10
          10 10 10 10 10 10
          10 10 10 10 10 10
          10 10 10 10 10 10
          10 10 10 10 10 10
          10 10 10 10 10 10
          10 10 10 10 10 10
          10 10 10 10 10 10
          10 10 10 10 10 10
          10 10 10 10 10 10
          10 10 10 10 10 10
          10 10 10 10 10 10
          10 10 10 10 10 10
          10 10 10 10 10 10
          10 10 10 10 10 10
          10 10 10 10 10 10
          10 10 10 10 10 10
          10 10 10 10 10 10
          10 10 10 10 10 10
          10 10 10 10 10 10
          10 10 10 10 10 10
          10 10 10 10 10 10
          10 10 10 10 10 10
          10 10 10 10 10 10
          10 10 10 10 10 10
          10 10 10 10 10 10
          10 10 10 10 10 10
          10 10 10 10 10 10
          10 10 10 10 10 10
          10 10 10 10 10 10
          10 10 10 10 10 10
          10 10 10 10 10 10
          10 10 10 10 10 10
          10 10 10 10 10 10
          10 10 10 10 10 10
          10 10 10 10 10 10
          10 10 10 10 10 10
          10 10 10 10 10 10
          10 10 10 10 10 10
          10 10 10 10 10 10
          10 10 10 10 10 10
          10 10 10 10 10 10
          10 10 10 10 10 10
          10 10 10 10 10 10
          10 10 10 10 10 10
          10 10 10 10 10 10
          10 10 10 10 10 10
          10 10 10 10 10 10
          10 10 10 10 10 10
          10 10 10 10 10 10
          10 10 10 10 10 10
          10 10 10 10 10 10
          10 10 10 10 10 10
          10 10 10 10 10 10
          10 10 10 10 10 10
          10 10 10 10 10 10
          10 10 10 10 10 10
          10 10 10 10 10 10
          10 10 10 10 10 10
          10 10 10 10 10 10
          10 10 10 10 10 10
          10 10 10 10 10 10
          10 10 10 10 10 10
          10 10 10 10 10 10
          10 10 10 10 10 10
          10 10 10 10 10 10
          10 10 10 10 10 10
          10 10 10 10 10 10
          10 10 10 10 10 10
          10 10 10 10 10 10
          10 10 10 10 10 10
          10 10 10 10 10 10
          10 10 10 10 10 10
          10 10 10 10 10 10
          10 10 10 10 10 10
          10 10 10 10 10 10
          10 10 10 10 10 10
          10 10 10 10 10 10
          10 10 10 10 10 10
          10 10 10 10 10 10
          10 10 10 10 10 10
          10 10 10 10 10 10
          10 10 10 10 10 10
          10 10 10 10 10 10
          10 10 10 10 10 10
          10 10 10 10 10 10
          10 10 10 10 10 10
          10 10 10 10 10 10
          10 10 10 10 10 10
          10 10 10 10 10 10
          10 10 10 10 10 10
          10 10 10 10 10 10
          10 10 10 10 10 10
          10 10 10 10 10 10
          10 10 10 10 10 10
          10 10 10 10 10 10
          10 10 10 10 10 10
          10 10 10 10 10 10
          10 10 10 10 10 10
          10 10 10 10 10 10
          10 10 10 10 10 10
          10 10 10 10 10 10
          10 10 10 10 10 10
          10 10 10 10 10 10
          10 10 10 10 10 10
          10 10 10 10 10 10
          10 10 10 10 10 10
          10 10 10 10 10 10
          10 10 10 10 10 10
          10 10 10 10 10 10
          10 10 10 10 10 10
          10 10 10 10 10 10
          10 10 10 10 10 10
          10 10 10 10 10 10
          10 10 10 10 10 10
          10 10 10 10 10 10
          10 10 10 10 10 10
          10 10 10 10 10 10
          10 10 10 10 10 10
          10 10 10 10 10 10
          10 10 10 10 10 10
          10 10 10 10 10 10
          10 10 10 10 10 10
          10 10 10 10 10 10
          10 10 10 10 10 10
          10 10 10 10 10 10
          10 10 10 10 10 10
          10 10 10 10 10 10
          10 10 10 10 10 10
          10 10 10 10 10 10
          10 10 10 10 10 10
          10 10 10 10 10 10
          10 10 10 10 10 10
          10 10 10 10 10 10
          10 10 10 10 10 10
          10 10 10 10 10 10
          10 10 10 10 10 10
          10 10 10 10 10 10
          10 10 10 10 10 10
          10 10 10 10 10 10
          10 10 10 10 10 10
          10 10 10 10 10 10
          10 10 10 10 10 10
          10 10 10 10 10 10
          10 10 10 10 10 10
          10 10 10 10 10 10
          10 10 10 10 10 10
          10 10 10 10 10 10
          10 10 10 10 10 10
          10 10 10 10 10 10
          10 10 10 10 10 10
          10 10 10 10 10 10
          10 10 10 10 10 10
          10 10 10 10 10 10
          10 10 10 10 10 10
          10 10 10 10 10 10
          10 10 10 10 10 10
          10 10 10 10 10 10
          10 10 10 10 10 10
          10 10 10 10 10 10
          10 10 10 10 10 10
          10 10 10 10 10 10
          10 10 10 10 10 10
          10 10 10 10 10 10
          10 10 10 10 10 10
          10 10 10 10 10 10
          10 10 10 10 10 10
          10 10 10 10 10 10
          10 10 10 10 10 10
          10 10 10 10 10 10
          10 10 10 10 10 10
          10 10 10 10 10 10
          10 10 10 10 10 10
          10 10 10 10 10 10
          10 10 10 10 10 10
          10 10 10 10 10 10
          10 10 10 10 10 10
          10 10 10 10 10 10
          10 10 10 10 10 10
          10 10 10 10 10 10
          10 10 10 10 10 10
          10 10 10 10 10 10
          10 10 10 10 10 10
          10 10 10 10 10 10
          10 10 10 10 10 10
          10 10 10 10 10 10
          10 10 10 10 10 10
          10 10 10 10 10 10
          10 10 10 10 10 10
          10 10 10 10 10 10
          10 10 10 10 10 10
          10 10 10 10 10 10
          10 10 10 10 10 10
          10 10 10 10 10 10
          10 10 10 10 10 10
          10 10 10 10 10 10
          10 10 10 10 10 10
          10 10 10 10 10 10
          10 10 10 10 10 10
          10 10 10 10 10 10
          10 10 10 10 10 10
          10 10 10 10 10 10
          10 10 10 10 10 10
          10 10 10 10 10 10
          10 10 10 10 10 10
          10 10 10 10 10 10
          10 10 10 10 10 10
          10 10 10 10 10 10
          10 10 10 10 10 10
          10 10 10 10 10 10
          10 10 10 10 10 10
          10 10 10 10 10 10
          10 10 10 10 10 10
          10 10 10 10 10 10
          10 10 10 10 10 10
          10 10 10 10 10 10
          10 10 10 10 10 10
          10 10 10 10 10 10
          10 10 10 10 10 10
          10 10 10 10 10 10
          10 10 10 10 10 10
          10 10 10 10 10 10
          10 10 10 10 10 10
          10 10 10 10 10 10
          10 10 10 10 10 10
          10 10 10 10 10 10
          10 10 10 10 10 10
          10 10 10 10 10 10
          10 10 10 10 10 10
          10 10 10 10 10 10
          10 10 10 10 10 10
          10 10 10 10 10 10
          10 10 10 10 10 10
          10 10 10 10 10 10
          10 10 10 10 10 10
          10 10 10 10 10 10
          10 10 10 10 10 10
          10 10 10 10 10 10
          10 10 10 10 10 10
          10 10 10 10 10 10
          10 10 10 10 10 10
          10 10 10 10 10 10
          10 10 10 10 10 10
          10 10 10 10 10 10
          10 10 10 10 10 10
          10 10 10 10 10 10
          10 10 10 10 10 10
          10 10 10 10 10 10
          10 10 10 10 10 10
          10 10 10 10 10 10
          10 10 10 10 10 10
          10 10 10 10 10 10
          10 10 10 10 10 10
          10 10 10 10 10 10
          10 10 10 10 10 10
          10 10 10 10 10 10
          10 10 10 10 10 10
          10 10 10 10 10 10
          10 10 10 10 10 10
          10 10 10 10 10 10
          10 10 10 10 10 10
          10 10 10 10 10 10
          10 10 10 10 10 10
          10 10 10 10 10 10
          10 10 10 10 10 10
          10 10 10 10 10 10
          10 10 10 10 10 10
          10 10 10 10 10 10
          10 10 10 10 10 10
          10 10 10 10 10 10
          10 10 10 10 10 10
          10 10 10 10 10 10
          10 10 10 10 10 10
          10 10 10 10 10 10
          10 10 10 10 10 10
          10 10 10 10 10 10
          10 10 10 10 10 10
          10 10 10 10 10 10
          10 10 10 10 10 10
          10 10 10 10 10 10
          10 10 10 10 10 10
          10 10 10 10 10 10
          10 10 10 10 10 10
          10 10 10 10 10 10
          10 10 10 10 10 10
          10 10 10 10 10 10
          10 10 10 10 10 10
          10 10 10 10 10 10
          10 10 10 10 10 10
          10 10 10 10 10 10
          10 10 10 10 10 10
          10 10 10 10 10 10
          10 10 10 10 10 10
          10 10 10 10 10 10
          10 10 10 10 10 10
          10 10 10 10 10 10
          10 10 10 10 10 10
          10 10 10 10 10 10
          10 10 10 10 10 10
          10 10 10 10 10 10
          10 10 10 10 10 10
          10 10 10 10 10 10
          10 10 10 10 10 10
          10 10 10 10 10 10
          10 10 10 10 10 10
          10 10 10 10 10 10
          10 10 10 10 10 10
          10 10 10 10 10 10
          10 10 10 10 10 10
          10 10 10 10 10 10
          10 10 10 10 10 10
          10 10 10 10 10 10
          10 10 10 10 10 10
          10 10 10 10 10 10
          10 10 10 10 10 10
          10 10 10 10 10 10
          10 10 10 10 10 10
          10 10 10 10 10 10
          10 10 10 10 10 10
          10 10 10 10 10 10
          10 10 10 10 10 10
          10 10 10 10 10 10
          10 10 10 10 10 10
          10 10 10 10 10 10
          10 10 10 10 10 10
          10 10 10 10 10 10
          10 10 10 10 10 10
          10 10 10 10 10 10
          10 10 10 10 10 10
          10 10 10 10 10 10
          10 10 10 10 10 10
          10 10 10 10 10 10
          10 10 10 10 10 10
          10 10 10 10 10 10
          10 10 10 10 10 10
          10 10 10 10 10 10
          10 10 10 10 10 10
          10 10 10 10 10 10
          10 10 10 10 10 10
          10 10 10 10 10 10
          10 10 10 10 10 10
          10 10 10 10 10 10
          10 10 10 10 10 10
          10 10 10 10 10 10
          10 10 10 10 10 10
          10 10 10 10 10 10
          10 10 10 10 10 10
          10 10 10 10 10 10
          10 10 10 10 10 10
          10 10 10 10 10 10
          10 10 10 10 10 10
          10 10 10 10 10 10
          10 10 10 10 10 10
          10 10 10 10 10 10
          10 10 10 10 10 10
          10 10 10 10 10 10
          10 10 10 10 10 10
          10 10 10 10 10 10
          10 10 10 10 10 10
          10 10 10 10 10 10
          10 10 10 10 10 10
          10 10 10 10 10 10
          10 10 10 10 10 10
          10 10 10 10 10 10
          10 10 10 10 10 10
          10 10 10 10 10 10
          10 10 10 10 10 10
          10 10 10 10 10 10
          10 10 10 10 10 10
          10 10 10 10 10 10
          10 10 10 10 10 10
          10 10 10 10 10 10
          10 10 10 10 10 10
          10 10 10 10 10 10
          10 10 10 10 10 10
          10 10 10 10 10 10
          10 10 10 10 10 10
          10 10 10 10 10 10
          10 10 10 10 10 10
          10 10 10 10 10 10
          10 10 10 10 10 10
          10 10 10 10 10 10
          10 10 10 10 10 10
          10 10 10 10 10 10
          10 10 10 10 10 10
          10 10 10 10 10 10
          10 10 10 10 10 10
          10 10 10 10 10 10
          10 10 10 10 10 10
          10 10 10 10 10 10
          10 10 10 10 10 10
          10 10 10 10 10 10
          10 10 10 10 10 10
          10 10 10 10 10 10
          10 10 10 10 10 10
          10 10 10 10 10 10
          10 10 10 10 10 10
          10 10 10 10 10 10
          10 10 10 10 10 10
          10 10 10 10 10 10
          10 10 10 10 10 10
          10 10 10 10 10 10
          10 10 10 10 10 10
          10 10 10 10 10 10
          10 10 10 10 10 10
          10 10 10 10 10 10
          10 10 10 10 10 10
          10 10 10 10 10 10
          10 10 10 10 10 10
          10 10 10 10 10 10
          10 10 10 10 10 10
          10 10 10 10 10 10
          10 10 10 10 10 10
          10 10 10 10 10 10
          10 10 10 10 10 10
          10 10 10 10 10 10
          10 10 10 10 10 10
          10 10 10 10 10 10
          10 10 10 10 10 10
          10 10 10 10 10 10
          10 10 10 10 10 10
          10 10 10 10 10 10
          10 10 10 10 10 10
          10 10 10 10 10 10
          10 10 10 10 10 10
          10 10 10 10 10 10
          10 10 10 10 10 10
          10 10 10 10 10 10
          10 10 10 10 10 10
          10 10 10 10 10 10
          10 10 10 10 10 10
          10 10 10 10 10 10
          10 10 10 10 10 10
          10 10 10 10 10 10
          10 10 10 10 10 10
          10 10 10 10 10 10
          10 10 10 10 10 10
          10 10 10 10 10 10
          10 10 10 10 10 10
          10 10 10 10 10 10
          10 10 10 10 10 10
          10 10 10 10 10 10
          10 10 10 10 10 10
          10 10 10 10 10 10
          10 10 10 10 10 10
          10 10 10 10 10 10
          10 10 10 10 10 10
          10 10 10 10 10 10
          10 10 10 10 10 10
          10 10 10 10 10 10
          10 10 10 10 10 10
          10 10 10 10 10 10
          10 10 10 10 10 10
          10 10 10 10 10 10
          10 10 10 10 10 10
          10 10 10 10 10 10
          10 10 10 10 10 10
          10 10 10 10 10 10
          10 10 10 10 10 10
          10 10 10 10 10 10
          10 10 10 10 10 10
          10 10 10 10 10 10
          10 10 10 10 10 10
          10 10 10 10 10 10
          10 10 10 10 10 10
          10 10 10 10 10 10
          10 10 10 10 10 10
          10 10 10 10 10 10
          10 10 10 10 10 10
          10 10 10 10 10 10
          10 10 10 10 10 10
          10 10 10 10 10 10
          10 10 10 10 10 10
          10 10 10 10 10 10
          10 10 10 10 10 10
          10 10 10 10 10 10
          10 10 10 10 10 10
          10 10 10 10 10 10
          10 10 10 10 10 10
          10 10 10 10 10 10
          10 10 10 10 10 10
          10 10 10 10 10 10
          10 10 10 10 10 10
          10 10 10 10 10 10
          10 10 10 10 10 10
          10 10 10 10 10 10
          10 10 10 10 10 10
          10 10 10 10 10 10
          10 10 10 10 10 10
          10 10 10 10 10 10
          10 10 10 10 10 10
          10 10 10 10 10 10
          10 10 10 10 10 10
          10 10 10 10 10 10
          10 10 10 10 10 10
          10 10 10 10 10 10
          10 10 10 10 10 10
          10 10 10 10 10 10
          10 10 10 10 10 10
          10 10 10 10 10 10
          10 10 10 10 10 10
          10 10 10 10 10 10
          10 10 10 10 10 10
          10 10 10 10 10 10
          10 10 10 10 10 10
          10 10 10 10 10 10
          10 10 10 10 10 10
          10 10 10 10 10 10
          10 10 10 10 10 10
          10 10 10 10 10 10
          10 10 10 10 10 10
          10 10 10 10 10 10
          10 10 10 10 10 10
          10 10 10 10 10 10
          10 10 10 10 10 10
          10 10 10 10 10 10
          10 10 10 10 10 10
          10 10 10 10 10 10
          10 10 10 10 10 10
          10 10 10 10 10 10
          10 10 10 10 10 10
          10 10 10 10 10 10
          10 10 10 10 10 10
          10 10 10 10 10 10
          10 10 10 10 10 10
          10 10 10 10 10 10
          10 10 10 10 10 10
          10 10 10 10 10 10
          10 10 10 10 10 10
          10 10 10 10 10 10
          10 10 10 10 10 10
          10 10 10 10 10 10
          10 10 10 10 10 10
          10 10 10 10 10 10
          10 10 10 10 10 10
          10 10 10 10 10 10
          10 10 10 10 10 10
          10 10 10 10 10 10
          10 10 10 10 10 10
          10 10 10 10 10 10
          10 10 10 10 10 10
          10 10 10 10 10 10
          10 10 10 10 10 10
          10 10 10 10 10 10
          10 10 10 10 10 10
          10 10 10 10 10 10
          10 10 10 10 10 10
          10 10 10 10 10 10
          10 10 10 10 10 10
          10 10 10 10 10 10
          10
        </DataArray>
      </Cells>
    </Piece>
  </UnstructuredGrid>
</VTKFile>
